<?xml version="1.0"?>
<!-- Time step: 1 | Time: 1.000000000000e+00 -->
<VTKFile type="UnstructuredGrid" version="0.1" byte_order="LittleEndian">
  <UnstructuredGrid>
    <Piece NumberOfPoints="2398" NumberOfCells="7341">
      <Points>
        <DataArray type="Float64" NumberOfComponents="3" format="ascii">
          4.499500000000e-02 -5.000000000000e-06 2.500000000000e-01
          5.000000000000e-02 0.000000000000e+00 2.500000000000e-01
          4.950000000000e-02 4.850000000000e-03 2.500000000000e-01
          4.800000000000e-03 4.945000000000e-02 2.500000000000e-01
          -1.000000000000e-04 4.990000000000e-02 2.500000000000e-01
          -9.500000000000e-05 4.490500000000e-02 2.500000000000e-01
          1.514685086641e-02 4.099708498181e-02 2.500000000000e-01
          1.910000000000e-02 4.610000000000e-02 2.500000000000e-01
          1.440000000000e-02 4.755000000000e-02 2.500000000000e-01
          4.755000000000e-02 1.440000000000e-02 2.500000000000e-01
          4.610000000000e-02 1.910000000000e-02 2.500000000000e-01
          4.143681877597e-02 1.482659581205e-02 2.500000000000e-01
          3.150000000000e-02 3.840000000000e-02 2.500000000000e-01
          2.770000000000e-02 4.150000000000e-02 2.500000000000e-01
          2.634522025725e-02 3.596026999276e-02 2.500000000000e-01
          8.130513142652e-03 1.613060442674e-02 2.500000000000e-01
          1.340070666587e-02 1.177046236352e-02 2.500000000000e-01
          1.275420703690e-02 1.746809895128e-02 2.500000000000e-01
          1.736007630346e-02 1.611890708889e-02 2.500000000000e-01
          9.935234930222e-03 2.173794503238e-02 2.500000000000e-01
          2.246766917751e-02 4.808153310094e-03 2.500000000000e-01
          1.997000000000e-02 -3.000000000000e-05 2.500000000000e-01
          2.497500000000e-02 -2.500000000000e-05 2.500000000000e-01
          4.762719943456e-03 2.243234006000e-02 2.500000000000e-01
          -7.500000000000e-05 2.492500000000e-02 2.500000000000e-01
          -7.000000000000e-05 1.993000000000e-02 2.500000000000e-01
          1.980123872466e-02 3.204731656202e-02 2.500000000000e-01
          1.442567433997e-02 3.181597211157e-02 2.500000000000e-01
          1.723808987637e-02 2.671610948417e-02 2.500000000000e-01
          4.900000000000e-02 9.700000000000e-03 2.500000000000e-01
          4.418262600751e-02 5.266425300966e-03 2.500000000000e-01
          3.999000000000e-02 -1.000000000000e-05 2.500000000000e-01
          3.697450025553e-02 2.488655764024e-02 2.500000000000e-01
          3.135594789098e-02 2.436991294192e-02 2.500000000000e-01
          3.651888215994e-02 1.882429716769e-02 2.500000000000e-01
          5.164339480302e-03 4.414912722639e-02 2.500000000000e-01
          9.700000000000e-03 4.900000000000e-02 2.500000000000e-01
          -9.000000000000e-05 3.991000000000e-02 2.500000000000e-01
          3.034670356689e-02 1.805945416704e-02 2.500000000000e-01
          3.293257609169e-02 1.437047657282e-02 2.500000000000e-01
          1.165190529784e-02 4.859108765654e-03 2.500000000000e-01
          9.960000000000e-03 -4.000000000000e-05 2.500000000000e-01
          1.496500000000e-02 -3.500000000000e-05 2.500000000000e-01
          1.677443424276e-02 6.998468275225e-03 2.500000000000e-01
          4.822088083234e-03 1.165051675041e-02 2.500000000000e-01
          -6.500000000000e-05 1.493500000000e-02 2.500000000000e-01
          -6.000000000000e-05 9.940000000000e-03 2.500000000000e-01
          2.149743116317e-02 2.109424932275e-02 2.500000000000e-01
          2.188497195671e-02 2.713234657639e-02 2.500000000000e-01
          2.584113280692e-02 2.530102585217e-02 2.500000000000e-01
          2.562998270984e-02 3.092620490060e-02 2.500000000000e-01
          1.505293989233e-02 2.166458483163e-02 2.500000000000e-01
          2.799984833780e-02 1.242946725955e-02 2.500000000000e-01
          2.589598956935e-02 1.735871033494e-02 2.500000000000e-01
          1.158752537914e-02 2.705072764978e-02 2.500000000000e-01
          1.086350397222e-02 4.442911632375e-02 2.500000000000e-01
          8.862640313189e-03 4.005922574703e-02 2.500000000000e-01
          4.444371390695e-02 1.086800748193e-02 2.500000000000e-01
          4.019349502782e-02 8.915935972628e-03 2.500000000000e-01
          3.652702837483e-02 1.220410368655e-02 2.500000000000e-01
          3.507366894497e-02 5.894876270694e-03 2.500000000000e-01
          1.183325400956e-02 3.616918500802e-02 2.500000000000e-01
          5.830165949509e-03 3.506532240324e-02 2.500000000000e-01
          3.931357249026e-02 4.425892410617e-03 2.500000000000e-01
          3.498500000000e-02 -1.500000000000e-05 2.500000000000e-01
          4.351250826792e-03 3.929763912234e-02 2.500000000000e-01
          -8.500000000000e-05 3.491500000000e-02 2.500000000000e-01
          2.340000000000e-02 4.380000000000e-02 2.500000000000e-01
          1.959920358377e-02 4.143929269431e-02 2.500000000000e-01
          3.490590697463e-02 2.879278566367e-02 2.500000000000e-01
          4.150000000000e-02 2.770000000000e-02 2.500000000000e-01
          3.840000000000e-02 3.150000000000e-02 2.500000000000e-01
          3.530000000000e-02 3.530000000000e-02 2.500000000000e-01
          3.081450475991e-02 3.046554489626e-02 2.500000000000e-01
          2.253306579218e-02 1.456333656569e-02 2.500000000000e-01
          2.356515006698e-02 1.000378312446e-02 2.500000000000e-01
          3.903409955508e-03 2.670542307332e-02 2.500000000000e-01
          -8.000000000000e-05 2.992000000000e-02 2.500000000000e-01
          2.673099877859e-02 3.952922489607e-03 2.500000000000e-01
          2.998000000000e-02 -2.000000000000e-05 2.500000000000e-01
          2.379584939667e-02 3.947561883102e-02 2.500000000000e-01
          2.052131802227e-02 3.683495904235e-02 2.500000000000e-01
          2.698517027344e-02 2.116683997215e-02 2.500000000000e-01
          1.011981244900e-02 3.202061063475e-02 2.500000000000e-01
          7.103580916550e-03 2.966409586122e-02 2.500000000000e-01
          3.254822177770e-02 1.041298916882e-02 2.500000000000e-01
          2.997850459073e-02 7.339980646430e-03 2.500000000000e-01
          4.182724752991e-02 1.908151306454e-02 2.500000000000e-01
          4.380000000000e-02 2.340000000000e-02 2.500000000000e-01
          1.926496239680e-02 1.068532926491e-02 2.500000000000e-01
          3.782134518065e-03 3.145077796757e-02 2.500000000000e-01
          3.147055127451e-02 3.847069491334e-03 2.500000000000e-01
          3.970084727914e-03 3.976177251874e-03 2.500000000000e-01
          -5.000000000000e-05 -5.000000000000e-05 2.500000000000e-01
          4.955000000000e-03 -4.500000000000e-05 2.500000000000e-01
          -5.500000000000e-05 4.945000000000e-03 2.500000000000e-01
          3.018308857122e-02 3.451693508378e-02 2.500000000000e-01
          2.834059967324e-02 2.774356040511e-02 2.500000000000e-01
          1.682705427827e-02 3.655049641988e-02 2.500000000000e-01
          7.462182811108e-03 2.552581631806e-02 2.500000000000e-01
          2.610879577743e-02 7.696789891732e-03 2.500000000000e-01
          1.746451159294e-02 2.958895468851e-03 2.500000000000e-01
          2.916898192219e-03 1.743548738558e-02 2.500000000000e-01
          7.747649241873e-03 3.135305259087e-03 2.500000000000e-01
          6.685668833589e-03 6.944877283965e-03 2.500000000000e-01
          3.119501094747e-03 7.744977764907e-03 2.500000000000e-01
          8.884838170095e-03 1.028076895183e-02 2.500000000000e-01
          4.004206817125e-02 2.255838275407e-02 2.500000000000e-01
          2.315264768193e-02 3.499297758697e-02 2.500000000000e-01
          4.499500000000e-02 -5.000000000000e-06 0.000000000000e+00
          5.000000000000e-02 0.000000000000e+00 0.000000000000e+00
          4.950000000000e-02 4.850000000000e-03 0.000000000000e+00
          4.800000000000e-03 4.945000000000e-02 0.000000000000e+00
          -1.000000000000e-04 4.990000000000e-02 0.000000000000e+00
          -9.500000000000e-05 4.490500000000e-02 0.000000000000e+00
          1.444856405498e-02 4.168404493369e-02 0.000000000000e+00
          1.910000000000e-02 4.610000000000e-02 0.000000000000e+00
          1.440000000000e-02 4.755000000000e-02 0.000000000000e+00
          4.755000000000e-02 1.440000000000e-02 0.000000000000e+00
          4.610000000000e-02 1.910000000000e-02 0.000000000000e+00
          4.192926950319e-02 1.488592319246e-02 0.000000000000e+00
          3.150000000000e-02 3.840000000000e-02 0.000000000000e+00
          2.770000000000e-02 4.150000000000e-02 0.000000000000e+00
          2.685944440358e-02 3.646841733752e-02 0.000000000000e+00
          8.053310985768e-03 1.603967310971e-02 0.000000000000e+00
          1.335810952330e-02 1.186675619328e-02 0.000000000000e+00
          1.272392712010e-02 1.745535262678e-02 0.000000000000e+00
          1.732765172956e-02 1.614694179524e-02 0.000000000000e+00
          9.894752522185e-03 2.163641512629e-02 0.000000000000e+00
          2.177221631729e-02 5.376359328563e-03 0.000000000000e+00
          1.997000000000e-02 -3.000000000000e-05 0.000000000000e+00
          2.497500000000e-02 -2.500000000000e-05 0.000000000000e+00
          4.609846197478e-03 2.178009872681e-02 0.000000000000e+00
          -7.500000000000e-05 2.492500000000e-02 0.000000000000e+00
          -7.000000000000e-05 1.993000000000e-02 0.000000000000e+00
          1.978520440480e-02 3.201727644524e-02 0.000000000000e+00
          1.442607991710e-02 3.182529250856e-02 0.000000000000e+00
          1.723642917256e-02 2.671349065238e-02 0.000000000000e+00
          4.900000000000e-02 9.700000000000e-03 0.000000000000e+00
          4.388632435373e-02 5.487866381779e-03 0.000000000000e+00
          3.999000000000e-02 -1.000000000000e-05 0.000000000000e+00
          3.708725387938e-02 2.455257455785e-02 0.000000000000e+00
          3.147769366852e-02 2.432626373736e-02 0.000000000000e+00
          3.661968325558e-02 1.891881046815e-02 0.000000000000e+00
          5.407189089899e-03 4.381762725266e-02 0.000000000000e+00
          9.700000000000e-03 4.900000000000e-02 0.000000000000e+00
          -9.000000000000e-05 3.991000000000e-02 0.000000000000e+00
          3.038049085187e-02 1.807901252416e-02 0.000000000000e+00
          3.296561555609e-02 1.443835661249e-02 0.000000000000e+00
          1.180200432271e-02 5.353998994642e-03 0.000000000000e+00
          9.960000000000e-03 -4.000000000000e-05 0.000000000000e+00
          1.496500000000e-02 -3.500000000000e-05 0.000000000000e+00
          1.656613053059e-02 7.279774217849e-03 0.000000000000e+00
          4.194316522455e-03 1.184205363046e-02 0.000000000000e+00
          -6.500000000000e-05 1.493500000000e-02 0.000000000000e+00
          -6.000000000000e-05 9.940000000000e-03 0.000000000000e+00
          2.149454785509e-02 2.109577112821e-02 0.000000000000e+00
          2.188998386085e-02 2.712377395955e-02 0.000000000000e+00
          2.586585334484e-02 2.528527410606e-02 0.000000000000e+00
          2.566746497817e-02 3.091361281003e-02 0.000000000000e+00
          1.504042934284e-02 2.165251370403e-02 0.000000000000e+00
          2.798997848784e-02 1.249168152487e-02 0.000000000000e+00
          2.589506744281e-02 1.736870812371e-02 0.000000000000e+00
          1.159452525350e-02 2.704008946859e-02 0.000000000000e+00
          1.057394640552e-02 4.443170786507e-02 0.000000000000e+00
          8.821172190368e-03 4.004384899813e-02 0.000000000000e+00
          4.451701691217e-02 1.069670169603e-02 0.000000000000e+00
          4.018951958716e-02 9.021310222991e-03 0.000000000000e+00
          3.662017145531e-02 1.238835652017e-02 0.000000000000e+00
          3.500615956344e-02 6.691117763734e-03 0.000000000000e+00
          1.182343085658e-02 3.624627472744e-02 0.000000000000e+00
          6.476009523427e-03 3.480318031647e-02 0.000000000000e+00
          3.884065818429e-02 4.224265186921e-03 0.000000000000e+00
          3.498500000000e-02 -1.500000000000e-05 0.000000000000e+00
          4.109237502081e-03 3.874136808720e-02 0.000000000000e+00
          -8.500000000000e-05 3.491500000000e-02 0.000000000000e+00
          2.340000000000e-02 4.380000000000e-02 0.000000000000e+00
          1.958324083578e-02 4.065374174783e-02 0.000000000000e+00
          3.575646441268e-02 2.893357497394e-02 0.000000000000e+00
          4.150000000000e-02 2.770000000000e-02 0.000000000000e+00
          3.840000000000e-02 3.150000000000e-02 0.000000000000e+00
          3.530000000000e-02 3.530000000000e-02 0.000000000000e+00
          3.100943121280e-02 3.023656106420e-02 0.000000000000e+00
          2.248480245231e-02 1.460678336295e-02 0.000000000000e+00
          2.339871366910e-02 1.013511152084e-02 0.000000000000e+00
          3.760974480391e-03 2.718629986226e-02 0.000000000000e+00
          -8.000000000000e-05 2.992000000000e-02 0.000000000000e+00
          2.733481852893e-02 4.011167411003e-03 0.000000000000e+00
          2.998000000000e-02 -2.000000000000e-05 0.000000000000e+00
          2.349923617853e-02 3.899499420060e-02 0.000000000000e+00
          2.044470967052e-02 3.661291533898e-02 0.000000000000e+00
          2.701137910001e-02 2.116158215944e-02 0.000000000000e+00
          1.024623946186e-02 3.200207422832e-02 0.000000000000e+00
          7.142414169605e-03 2.968974244420e-02 0.000000000000e+00
          3.257090483706e-02 1.062250916008e-02 0.000000000000e+00
          3.004581143756e-02 7.454491130719e-03 0.000000000000e+00
          4.173856281686e-02 1.980717109033e-02 0.000000000000e+00
          4.380000000000e-02 2.340000000000e-02 0.000000000000e+00
          1.908831858556e-02 1.084197507647e-02 0.000000000000e+00
          3.451709793398e-03 3.131561554002e-02 0.000000000000e+00
          3.145910331419e-02 3.609933313769e-03 0.000000000000e+00
          3.638283649563e-03 3.766606271286e-03 0.000000000000e+00
          -5.000000000000e-05 -5.000000000000e-05 0.000000000000e+00
          4.955000000000e-03 -4.500000000000e-05 0.000000000000e+00
          -5.500000000000e-05 4.945000000000e-03 0.000000000000e+00
          3.002565738790e-02 3.425897469898e-02 0.000000000000e+00
          2.840724298365e-02 2.767721938431e-02 0.000000000000e+00
          1.670485976392e-02 3.652181441721e-02 0.000000000000e+00
          7.409696787338e-03 2.548603593729e-02 0.000000000000e+00
          2.606548330152e-02 7.851146546178e-03 0.000000000000e+00
          1.702418670790e-02 3.536801724754e-03 0.000000000000e+00
          3.320046084288e-03 1.694030102234e-02 0.000000000000e+00
          7.391614747419e-03 3.197086610601e-03 0.000000000000e+00
          6.481376986658e-03 7.000630350450e-03 0.000000000000e+00
          2.866803512839e-03 7.508024927329e-03 0.000000000000e+00
          8.743853340357e-03 1.041543590345e-02 0.000000000000e+00
          4.015889169221e-02 2.286641356478e-02 0.000000000000e+00
          2.317578142787e-02 3.495353223744e-02 0.000000000000e+00
          5.000000000000e-02 0.000000000000e+00 2.451923076923e-01
          5.000000000000e-02 0.000000000000e+00 4.807692307692e-03
          -5.000000000000e-05 -5.000000000000e-05 4.807692307692e-03
          -5.000000000000e-05 -5.000000000000e-05 2.451923076923e-01
          4.349478057261e-02 -6.498720706687e-06 1.365277300020e-01
          5.000000000000e-02 0.000000000000e+00 1.394230769231e-01
          5.000000000000e-02 0.000000000000e+00 1.346153846154e-01
          4.368257475220e-02 -6.311114133663e-06 5.519321867760e-02
          5.000000000000e-02 0.000000000000e+00 5.769230769231e-02
          5.000000000000e-02 0.000000000000e+00 5.288461538462e-02
          6.348854401474e-03 -4.360753806047e-05 9.334571541917e-02
          -5.000000000000e-05 -5.000000000000e-05 9.134615384615e-02
          -5.000000000000e-05 -5.000000000000e-05 9.615384615384e-02
          6.266854774030e-03 -4.368945577020e-05 5.470970559525e-02
          -5.000000000000e-05 -5.000000000000e-05 5.288461538461e-02
          -5.000000000000e-05 -5.000000000000e-05 5.769230769231e-02
          6.262552339416e-03 -4.369375390668e-05 2.193323472563e-01
          -5.000000000000e-05 -5.000000000000e-05 2.163461538462e-01
          -5.000000000000e-05 -5.000000000000e-05 2.211538461538e-01
          6.262552339416e-03 -4.369375390668e-05 3.066765274374e-02
          -5.000000000000e-05 -5.000000000000e-05 2.884615384615e-02
          -5.000000000000e-05 -5.000000000000e-05 3.365384615385e-02
          4.368744766058e-02 -6.306246093323e-06 3.066765274374e-02
          5.000000000000e-02 0.000000000000e+00 3.365384615385e-02
          5.000000000000e-02 0.000000000000e+00 2.884615384615e-02
          4.368331647977e-02 -6.310373147087e-06 2.228337877949e-01
          5.000000000000e-02 0.000000000000e+00 2.259615384615e-01
          5.000000000000e-02 0.000000000000e+00 2.211538461538e-01
          4.416706511326e-02 -5.827107778960e-06 1.126922529650e-01
          5.000000000000e-02 0.000000000000e+00 1.153846153846e-01
          5.000000000000e-02 0.000000000000e+00 1.105769230769e-01
          4.428787739751e-02 -5.706416186304e-06 7.932692307693e-02
          5.000000000000e-02 0.000000000000e+00 8.173076923077e-02
          5.000000000000e-02 0.000000000000e+00 7.692307692308e-02
          6.043528203541e-03 -4.391255923722e-05 1.116674075063e-01
          -5.000000000000e-05 -5.000000000000e-05 1.105769230769e-01
          -5.000000000000e-05 -5.000000000000e-05 1.153846153846e-01
          5.631467262329e-03 -4.432420852914e-05 7.932692307692e-02
          -5.000000000000e-05 -5.000000000000e-05 7.692307692308e-02
          -5.000000000000e-05 -5.000000000000e-05 8.173076923077e-02
          4.429113046296e-02 -5.703166370672e-06 1.708712285355e-01
          5.000000000000e-02 0.000000000000e+00 1.730769230769e-01
          5.000000000000e-02 0.000000000000e+00 1.682692307692e-01
          4.429113046296e-02 -5.703166370672e-06 1.997173823816e-01
          5.000000000000e-02 0.000000000000e+00 2.019230769231e-01
          5.000000000000e-02 0.000000000000e+00 1.971153846154e-01
          5.658869537042e-03 -4.429683362933e-05 1.708712285355e-01
          -5.000000000000e-05 -5.000000000000e-05 1.682692307692e-01
          -5.000000000000e-05 -5.000000000000e-05 1.730769230769e-01
          5.883222091407e-03 -4.407270520339e-05 6.619076113095e-02
          -5.000000000000e-05 -5.000000000000e-05 6.250000000000e-02
          -5.000000000000e-05 -5.000000000000e-05 6.730769230769e-02
          4.411065026521e-02 -5.883466268525e-06 6.635743300243e-02
          5.000000000000e-02 0.000000000000e+00 6.730769230769e-02
          5.000000000000e-02 0.000000000000e+00 6.250000000000e-02
          5.382659437054e-03 -4.457276779515e-05 1.994550823255e-01
          -5.000000000000e-05 -5.000000000000e-05 1.971153846154e-01
          -5.000000000000e-05 -5.000000000000e-05 2.019230769231e-01
          4.440963774893e-02 -5.584777473598e-06 1.423534844539e-01
          5.000000000000e-02 0.000000000000e+00 1.442307692308e-01
          5.789947922857e-03 -4.416588619095e-05 1.305576408844e-01
          -5.000000000000e-05 -5.000000000000e-05 1.298076923077e-01
          -5.000000000000e-05 -5.000000000000e-05 1.346153846154e-01
          2.893794899329e-02 -2.104100999671e-05 9.406829104412e-02
          2.475072409321e-02 -2.522405185493e-05 9.026860784968e-02
          2.354552531156e-02 -2.642804664180e-05 9.524753264083e-02
          2.099391572654e-02 -2.897710716630e-05 6.550280043257e-02
          2.462474547770e-02 -2.534990461769e-05 6.977162826051e-02
          2.604928284798e-02 -2.392679036166e-05 6.416264069212e-02
          2.302362091622e-02 -2.694942965412e-05 2.445878043541e-01
          2.302362091622e-02 -2.694942965412e-05 5.412195645891e-03
          5.551174130218e-03 -4.440442144833e-05 1.454810130854e-01
          -5.000000000000e-05 -5.000000000000e-05 1.442307692308e-01
          -5.000000000000e-05 -5.000000000000e-05 1.490384615385e-01
          1.670023161519e-02 -3.326650188293e-05 1.254146558124e-01
          1.786743421790e-02 -3.210046531678e-05 1.203445050726e-01
          1.197330703021e-02 -3.798870426552e-05 1.220181794667e-01
          2.316537593825e-02 -2.680781624551e-05 1.091895284363e-01
          2.469364886969e-02 -2.528107006024e-05 1.040138407827e-01
          1.864314849574e-02 -3.132552597828e-05 1.056858557104e-01
          1.898659741494e-02 -3.098242016489e-05 1.112189731941e-01
          5.327043907710e-03 -4.462832776453e-05 1.554474470742e-01
          -5.000000000000e-05 -5.000000000000e-05 1.538461538462e-01
          -5.000000000000e-05 -5.000000000000e-05 1.586538461538e-01
          2.802401974619e-02 -2.195402622758e-05 2.090381815900e-01
          2.596570287967e-02 -2.401028683350e-05 2.037830920647e-01
          2.269332064392e-02 -2.727939995612e-05 2.090928983065e-01
          2.527068564811e-02 -2.470460974214e-05 2.148957866113e-01
          2.786208393860e-02 -2.211580026114e-05 1.808977503598e-01
          2.617865497665e-02 -2.379754747588e-05 1.755923259032e-01
          2.261544474307e-02 -2.735719805887e-05 1.805509583944e-01
          2.486543961778e-02 -2.510945093129e-05 1.854077527241e-01
          2.787115064330e-02 -2.210674261408e-05 1.520502920102e-01
          2.606811338223e-02 -2.390797863913e-05 1.466934555558e-01
          2.259448980850e-02 -2.737813205944e-05 1.517334632811e-01
          2.492243976924e-02 -2.505250772304e-05 1.566944139591e-01
          2.216434983536e-02 -2.780784232232e-05 4.116127035184e-02
          2.424559578292e-02 -2.572867554154e-05 4.591327443751e-02
          2.754917271586e-02 -2.242839888526e-05 4.136056765305e-02
          2.506362789458e-02 -2.491146064478e-05 3.665163639342e-02
          4.496520884789e-02 -5.029761390719e-06 4.095327560490e-02
          5.000000000000e-02 0.000000000000e+00 4.326923076923e-02
          5.000000000000e-02 0.000000000000e+00 3.846153846154e-02
          4.984791152111e-03 -4.497023860928e-05 2.090467243951e-01
          -5.000000000000e-05 -5.000000000000e-05 2.067307692308e-01
          -5.000000000000e-05 -5.000000000000e-05 2.115384615385e-01
          4.984791152111e-03 -4.497023860928e-05 4.095327560490e-02
          -5.000000000000e-05 -5.000000000000e-05 3.846153846154e-02
          -5.000000000000e-05 -5.000000000000e-05 4.326923076923e-02
          4.496520884789e-02 -5.029761390720e-06 2.092225063741e-01
          5.000000000000e-02 0.000000000000e+00 2.115384615385e-01
          5.000000000000e-02 0.000000000000e+00 2.067307692308e-01
          3.711768617037e-02 -1.286944438524e-05 5.070177111200e-03
          1.283231382963e-02 -3.713055561476e-05 5.070177111200e-03
          1.283231382963e-02 -3.713055561476e-05 2.449298228888e-01
          3.711768617037e-02 -1.286944438524e-05 2.449298228888e-01
          4.483332798015e-02 -5.161510509337e-06 9.914111373363e-02
          5.000000000000e-02 0.000000000000e+00 1.009615384615e-01
          5.000000000000e-02 0.000000000000e+00 9.615384615385e-02
          4.224643688346e-02 -7.745817299242e-06 9.455527518187e-02
          3.992678027615e-02 -1.006315656728e-05 9.953708678915e-02
          4.482809879296e-02 -5.166734472566e-06 4.984787964883e-02
          5.000000000000e-02 0.000000000000e+00 4.807692307693e-02
          3.371055678726e-02 -1.627317004270e-05 1.155674408799e-01
          3.579742448679e-02 -1.418838712609e-05 1.104429823618e-01
          3.086258915188e-02 -1.911829255556e-05 1.115759821305e-01
          3.281655118914e-02 -1.716628252833e-05 1.062413089442e-01
          5.224953380628e-03 -4.473031630307e-05 2.246644248892e-01
          -5.000000000000e-05 -5.000000000000e-05 2.259615384615e-01
          4.472504661937e-02 -5.269683696931e-06 2.533557511084e-02
          5.000000000000e-02 0.000000000000e+00 2.403846153846e-02
          5.224953380628e-03 -4.473031630307e-05 2.533557511084e-02
          -5.000000000000e-05 -5.000000000000e-05 2.403846153846e-02
          5.330619420604e-03 -4.462475582357e-05 1.206735219590e-01
          -5.000000000000e-05 -5.000000000000e-05 1.201923076923e-01
          -5.000000000000e-05 -5.000000000000e-05 1.250000000000e-01
          9.600071332658e-03 -4.035956909824e-05 1.160501914070e-01
          7.808816251831e-03 -4.214903471346e-05 1.256243052528e-01
          3.837129814996e-02 -1.161708476527e-05 1.050287180850e-01
          3.714033738837e-02 -1.284681579583e-05 9.530598670287e-02
          2.949307841233e-02 -2.048643515252e-05 6.787359136964e-02
          8.362145746854e-03 -4.159625799515e-05 1.064163289162e-01
          1.351661922388e-02 -3.644693384228e-05 1.081155799310e-01
          1.327308785631e-02 -3.669022192177e-05 1.029407296470e-01
          8.656621825040e-03 -4.130207609886e-05 1.004955076184e-01
          1.712928548081e-02 -3.283787664255e-05 1.002666542513e-01
          3.671602888377e-02 -1.327070041581e-05 1.626024147988e-01
          3.715226023775e-02 -1.283490485739e-05 1.679381117078e-01
          4.328852941260e-02 -6.704765821580e-06 1.648337536943e-01
          3.150115392236e-02 -1.848036571193e-05 1.666503055878e-01
          4.111714662012e-02 -8.873979400479e-06 1.580673174407e-01
          3.520520166589e-02 -1.478001831580e-05 1.571539850408e-01
          3.215105954369e-02 -1.783110934696e-05 1.608751652338e-01
          4.328852941260e-02 -6.704765821580e-06 1.936799075404e-01
          4.123006527160e-02 -8.761173554848e-06 1.870253528291e-01
          3.762354884086e-02 -1.236408707207e-05 1.922702202923e-01
          3.530452841156e-02 -1.468079079764e-05 1.862551461664e-01
          3.199711751087e-02 -1.798489759154e-05 1.905639184732e-01
          2.169079449599e-02 -2.828092457943e-05 2.340209130581e-01
          2.664670321511e-02 -2.332996681807e-05 2.319820362008e-01
          2.282660190102e-02 -2.714625184714e-05 2.283068922802e-01
          1.963995325067e-02 -3.032971703230e-05 2.773023878343e-02
          2.531134678873e-02 -2.466398922204e-05 2.740713984795e-02
          2.249441032958e-02 -2.747811155886e-05 2.205141119849e-02
          2.658001239095e-02 -2.339659101803e-05 1.810606674764e-02
          2.162925721232e-02 -2.834240038730e-05 1.605169503145e-02
          1.726281482690e-02 -3.270448069241e-05 2.324154955414e-02
          3.144324784001e-02 -1.853821394605e-05 1.377416123103e-01
          2.490977487556e-02 -2.506515996448e-05 1.373004725010e-01
          2.731423719309e-02 -2.266309970720e-05 1.416051327061e-01
          3.170445230105e-02 -1.827727042852e-05 1.440191875789e-01
          2.542072783307e-02 -2.455471744949e-05 1.665754917347e-01
          2.754453583669e-02 -2.243303113218e-05 1.705970964967e-01
          3.174389484645e-02 -1.823786728626e-05 1.728830468027e-01
          2.058244217028e-02 -2.938816966006e-05 9.216917493662e-02
          5.030396070104e-03 -4.492467925065e-05 4.956288960343e-02
          -5.000000000000e-05 -5.000000000000e-05 4.807692307692e-02
          1.314712895356e-02 -3.681605499145e-05 2.038173213347e-01
          1.696644616270e-02 -3.300055328402e-05 2.081442538375e-01
          1.794604684664e-02 -3.202193122214e-05 2.020615286275e-01
          8.125116977461e-03 -4.183304997257e-05 1.938860686184e-01
          1.215448923048e-02 -3.780770306646e-05 1.958701341534e-01
          1.274415031990e-02 -3.721863104905e-05 1.913720264021e-01
          8.922335592096e-03 -4.103662778012e-05 1.868918812436e-01
          1.461515257992e-02 -3.534949792216e-05 1.859772216321e-01
          1.733320484665e-02 -3.263416099236e-05 1.906445982409e-01
          1.237157718847e-02 -3.759083197955e-05 1.634150416313e-01
          9.217443977114e-03 -4.074181420868e-05 1.589539834944e-01
          6.661470587402e-03 -4.329523417842e-05 1.648337536943e-01
          1.457265932989e-02 -3.539194872139e-05 1.573581582466e-01
          1.723653945259e-02 -3.273072981759e-05 1.611047974948e-01
          2.728123543621e-02 -2.269606849530e-05 2.194260887626e-01
          2.569648368414e-02 -2.427923707878e-05 2.234278642767e-01
          3.091730806316e-02 -1.906362830853e-05 2.222215591315e-01
          3.089863752904e-02 -1.908228019077e-05 2.169135494353e-01
          3.689029258362e-02 -1.309661080557e-05 1.340443595271e-01
          3.722125318528e-02 -1.276598083388e-05 1.392576309468e-01
          4.124643793077e-02 -8.744817251981e-06 1.299164069826e-01
          3.232332356035e-02 -1.765901742223e-05 1.319231235358e-01
          2.253762794136e-02 -2.743493712152e-05 2.000103452778e-01
          2.442878017480e-02 -2.554567415105e-05 1.949216660557e-01
          1.919822327419e-02 -3.077100572009e-05 1.959956757973e-01
          2.681398516874e-02 -2.316285197928e-05 1.220751447367e-01
          2.463750532496e-02 -2.533715751752e-05 1.273803536534e-01
          3.053954836708e-02 -1.944101062230e-05 1.267068477836e-01
          4.494738178062e-02 -5.047570648729e-06 2.177456070773e-01
          5.000000000000e-02 0.000000000000e+00 2.163461538462e-01
          2.142852255539e-02 -2.854293451010e-05 1.324084033205e-01
          2.747442193796e-02 -2.250307498705e-05 1.322373050856e-01
          1.879303215445e-02 -3.117579205349e-05 4.561390129579e-02
          1.689013961715e-02 -3.307678359925e-05 4.114906936873e-02
          1.349231390290e-02 -3.647121488221e-05 4.551512000028e-02
          2.034557532310e-02 -2.962479987703e-05 5.022354768223e-02
          3.818326871068e-02 -1.180492636296e-05 1.526635834142e-01
          3.296179880435e-02 -1.702118001563e-05 1.524293188573e-01
          4.278402759251e-02 -7.208763643843e-06 1.529949150545e-01
          4.136101897687e-02 -8.630350672459e-06 1.474179808946e-01
          3.820417556898e-02 -1.178404039063e-05 1.815431182823e-01
          3.295785706264e-02 -1.702511781954e-05 1.813104574157e-01
          4.278490721194e-02 -7.207884903154e-06 1.818252391104e-01
          4.132925781187e-02 -8.662080108020e-06 1.761676834670e-01
          1.171538396476e-02 -3.824636966558e-05 1.811155495020e-01
          1.716739240058e-02 -3.279980779163e-05 1.805764875583e-01
          1.446201324432e-02 -3.550248427140e-05 1.752015705710e-01
          7.113127711684e-03 -4.284402826006e-05 1.817833804745e-01
          8.161856046132e-03 -4.179634760626e-05 1.764563525336e-01
          3.067578228458e-02 -1.930491280262e-05 2.050755484924e-01
          3.323773042253e-02 -1.674552405342e-05 2.088651532891e-01
          3.557094898182e-02 -1.441463638179e-05 2.038020488270e-01
          3.082482141335e-02 -1.915602256408e-05 2.000184013074e-01
          1.905897852835e-02 -3.091011136029e-05 2.137754467319e-01
          1.374293125700e-02 -3.622084789510e-05 2.134178523833e-01
          2.017409711958e-02 -2.979610677365e-05 2.188130879445e-01
          3.580637448794e-02 -1.417944606600e-05 1.287620525038e-01
          3.532032983394e-02 -1.466500516090e-05 1.239754507488e-01
          3.098517494616e-02 -1.899582922461e-05 2.788300530799e-02
          2.775389415328e-02 -2.222388196476e-05 3.224783069301e-02
          3.270042318283e-02 -1.728229452265e-05 3.284038153882e-02
          3.883590960901e-02 -1.115293745354e-05 4.126594020365e-02
          3.315425958888e-02 -1.682891149962e-05 4.146509699029e-02
          3.644521506741e-02 -1.354124368890e-05 4.586610188511e-02
          4.109762516923e-02 -8.893481349424e-06 3.652681690331e-02
          4.182406822720e-02 -8.167764008790e-06 4.558700371877e-02
          1.132577951581e-02 -3.863558489930e-05 4.096363931421e-02
          9.310097686392e-03 -4.064925306055e-05 3.568816571026e-02
          8.161697049116e-03 -4.179650644444e-05 4.539309389634e-02
          3.041236343384e-02 -1.956806849766e-05 4.670483025151e-02
          3.355394763282e-02 -1.642962274443e-05 1.955097468677e-01
          3.726991240279e-02 -1.271737022698e-05 1.967328893108e-01
          4.484588141822e-02 -5.148969612165e-06 2.448357100829e-01
          5.000000000000e-02 0.000000000000e+00 2.403846153846e-01
          5.104118581777e-03 -4.485103038784e-05 2.448357100829e-01
          -5.000000000000e-05 -5.000000000000e-05 2.403846153846e-01
          4.484588141822e-02 -5.148969612164e-06 5.164289917147e-03
          5.000000000000e-02 0.000000000000e+00 9.615384615385e-03
          5.104118581777e-03 -4.485103038784e-05 5.164289917147e-03
          -5.000000000000e-05 -5.000000000000e-05 9.615384615384e-03
          2.761324944007e-02 -2.236438617375e-05 1.615545033019e-01
          2.029507620797e-02 -2.967524854348e-05 1.756722179396e-01
          1.853002961190e-02 -3.143853185624e-05 1.709886286175e-01
          4.883583419198e-03 -4.507134523557e-05 1.888763857621e-01
          -5.000000000000e-05 -5.000000000000e-05 1.875000000000e-01
          -5.000000000000e-05 -5.000000000000e-05 1.923076923077e-01
          4.506641658080e-02 -4.928654764434e-06 1.600302319160e-01
          5.000000000000e-02 0.000000000000e+00 1.634615384615e-01
          5.000000000000e-02 0.000000000000e+00 1.586538461538e-01
          4.506641658080e-02 -4.928654764434e-06 1.888763857621e-01
          5.000000000000e-02 0.000000000000e+00 1.923076923077e-01
          5.000000000000e-02 0.000000000000e+00 1.875000000000e-01
          2.999399881460e-02 -1.998601517023e-05 1.856604648138e-01
          2.705268287738e-02 -2.292439272989e-05 1.901748193164e-01
          3.010009258335e-02 -1.988002738926e-05 1.567142541372e-01
          3.789705609781e-02 -1.209085304914e-05 5.356807826214e-02
          3.746802496193e-02 -1.251945558249e-05 5.779292815901e-02
          4.098378301543e-02 -9.007209774797e-06 6.159411249475e-02
          3.590297334089e-02 -1.408294371540e-05 6.278494796837e-02
          3.257897658297e-02 -1.740361979724e-05 5.888943099792e-02
          2.806282170712e-02 -2.191526302985e-05 2.452875081828e-01
          2.806282170712e-02 -2.191526302985e-05 4.712491817158e-03
          1.427063459782e-02 -3.569367173045e-05 1.464990017978e-01
          1.712199429785e-02 -3.284516054161e-05 1.518500429171e-01
          2.005348359563e-02 -2.991659980456e-05 1.468126508088e-01
          1.764434357665e-02 -3.232333309026e-05 1.420724504596e-01
          3.819933651050e-02 -1.178887461488e-05 2.848721089787e-02
          3.761156113206e-02 -1.237606280513e-05 3.267929978228e-02
          1.338397513391e-02 -3.657944542067e-05 9.702125716997e-02
          4.536383501236e-02 -4.631533454181e-06 1.318283824132e-01
          5.000000000000e-02 0.000000000000e+00 1.298076923077e-01
          1.276747335653e-02 -3.719533131216e-05 1.678663685320e-01
          1.703131057197e-02 -3.293575367435e-05 1.661902714567e-01
          2.162034923399e-02 -2.835129946655e-05 1.234433993764e-01
          2.320691523977e-02 -2.676631844179e-05 1.178286142504e-01
          4.375548230854e-03 -4.557887289625e-05 9.855769230769e-02
          -5.000000000000e-05 -5.000000000000e-05 1.009615384615e-01
          3.370226486453e-02 -1.628145368179e-05 9.177056694230e-02
          2.974348018554e-02 -2.023628353093e-05 8.860270830249e-02
          2.560652585229e-02 -2.436910504267e-05 8.450963234533e-02
          3.143943243446e-02 -1.854202554000e-05 8.385739427356e-02
          3.633246283253e-02 -1.365388328419e-05 9.788146794540e-03
          4.081783740731e-02 -9.172989603092e-06 7.907810815549e-03
          3.244123504536e-02 -1.754122373091e-05 7.194879171647e-03
          9.217919739453e-03 -4.074133892163e-05 7.949421901331e-03
          1.403858921786e-02 -3.592548529684e-05 1.001134738815e-02
          1.788585604667e-02 -3.208206189144e-05 7.446661281316e-03
          1.404367254444e-02 -3.592040704851e-05 2.399939381057e-01
          9.218615310701e-03 -4.074064404525e-05 2.420513900557e-01
          1.788717972097e-02 -3.208073953949e-05 2.425549775569e-01
          4.082553242698e-02 -9.165302270754e-06 2.420879752187e-01
          3.634832519520e-02 -1.363803676803e-05 2.402107565425e-01
          3.244321705956e-02 -1.753924369674e-05 2.428057967857e-01
          4.224412316471e-02 -7.748128706583e-06 1.244630313332e-01
          4.180230802694e-02 -8.189502470593e-06 1.189805108294e-01
          3.891615528022e-02 -1.107277194783e-05 1.225325182346e-01
          1.978206834651e-02 -3.018774390958e-05 1.855362049471e-01
          1.974499073953e-02 -3.022478447599e-05 1.567466614200e-01
          3.879655693331e-02 -1.119225081588e-05 2.089589060436e-01
          3.583685162447e-02 -1.414899937615e-05 2.139453832380e-01
          4.144481721670e-02 -8.546636147152e-06 2.043945128372e-01
          4.178401160531e-02 -8.207780614076e-06 2.135435552331e-01
          1.979152479057e-02 -3.017829691252e-05 1.376678358143e-01
          1.525758652870e-02 -3.470770576554e-05 1.378784923258e-01
          4.599353181490e-03 -4.535529152698e-05 1.603389104474e-01
          -5.000000000000e-05 -5.000000000000e-05 1.634615384615e-01
          4.569115247814e-02 -4.304542978883e-06 6.009615384616e-02
          4.291122000237e-03 -4.566321478498e-05 8.407500317118e-02
          -5.000000000000e-05 -5.000000000000e-05 8.653846153846e-02
          4.291122000237e-03 -4.566321478498e-05 7.457884298267e-02
          -5.000000000000e-05 -5.000000000000e-05 7.211538461538e-02
          3.898546150975e-02 -1.100353495530e-05 6.720426571486e-02
          3.409241893876e-02 -1.589168937186e-05 6.763869071931e-02
          3.658363100371e-02 -1.340296603026e-05 7.333519903463e-02
          4.212650583447e-02 -7.865628536988e-06 7.130718807582e-02
          1.095080332024e-02 -3.901018649327e-05 2.088260934815e-01
          8.549516775458e-03 -4.140907415039e-05 2.137055739506e-01
          8.094808169480e-03 -4.186332850202e-05 2.042982353935e-01
          4.567242781935e-02 -4.323248931716e-06 7.462832907983e-02
          5.000000000000e-02 0.000000000000e+00 7.211538461539e-02
          4.567242781935e-02 -4.323248931716e-06 8.402551707402e-02
          5.000000000000e-02 0.000000000000e+00 8.653846153846e-02
          2.844957642155e-02 -2.152889468377e-05 2.291725933118e-02
          3.339738453382e-02 -1.658602943675e-05 2.338190737964e-02
          4.681869013110e-03 -4.527285812876e-05 1.406663779072e-01
          -5.000000000000e-05 -5.000000000000e-05 1.394230769231e-01
          9.801897716338e-03 -4.015794433932e-05 1.432718528170e-01
          2.594997650353e-02 -2.402599749897e-05 5.138739787169e-02
          2.531321411107e-02 -2.466212376516e-05 5.602758797719e-02
          2.936974505720e-02 -2.060964529751e-05 5.522601732554e-02
          3.083698553651e-02 -1.914387059290e-05 5.149415902602e-02
          2.858432826757e-02 -2.139427745498e-05 2.272884114835e-01
          3.358176641170e-02 -1.640183175654e-05 2.266396655913e-01
          4.547452594899e-02 -4.520953097912e-06 8.976894936249e-02
          5.000000000000e-02 0.000000000000e+00 9.134615384616e-02
          4.166349361822e-02 -8.328178203575e-06 8.613427807045e-02
          1.900413540021e-02 -3.096489970009e-05 1.154449729961e-02
          1.540790106012e-02 -3.455754139848e-05 1.515869128725e-02
          2.400140416809e-02 -2.597262320871e-05 1.139554512902e-02
          1.543808192598e-02 -3.452739068333e-05 2.348701254634e-01
          1.901705262749e-02 -3.095199537714e-05 2.384705673487e-01
          2.400910489780e-02 -2.596493017203e-05 2.386152413187e-01
          3.875169464730e-02 -1.123706828442e-05 1.144738197591e-01
          1.599982497285e-02 -3.396620881833e-05 6.648201323611e-02
          1.902073925782e-02 -3.094831242975e-05 7.038908320372e-02
          1.351681797175e-02 -3.644673529296e-05 7.147000389423e-02
          1.723809604764e-02 -3.272917477759e-05 7.438628407136e-02
          4.590504258923e-02 -4.090866544223e-06 1.177884615385e-01
          5.000000000000e-02 0.000000000000e+00 1.201923076923e-01
          1.097871888041e-02 -3.898229882077e-05 6.644878748095e-02
          1.388975706773e-02 -3.607416876351e-05 6.214420694017e-02
          8.864508353826e-03 -4.109439724892e-05 6.119235969340e-02
          7.986289040796e-03 -4.197173921998e-05 7.079512863555e-02
          2.636718675039e-02 -2.360920404557e-05 7.494929954713e-02
          2.354282050693e-02 -2.643074874432e-05 7.928152380292e-02
          2.863480432745e-02 -2.134385182073e-05 7.944922656152e-02
          3.105168417577e-02 -1.892938643780e-05 7.496701705708e-02
          4.025833439731e-03 -4.592823832195e-05 8.894230769231e-02
          8.127885305564e-03 -4.183028441003e-05 8.803324258476e-02
          3.711746495692e-02 -1.286966537770e-05 8.408487647581e-02
          3.903891623897e-02 -1.095013362741e-05 7.909792217220e-02
          3.391971549390e-02 -1.606422028582e-05 7.915932605966e-02
          1.248863990739e-02 -3.747388620640e-05 5.731337912269e-02
          1.213912565465e-02 -3.782305129405e-05 5.315482026691e-02
          1.649819969162e-02 -3.346833197640e-05 5.400832895471e-02
          1.739231932382e-02 -3.257510557061e-05 5.850780783038e-02
          4.006842220680e-03 -4.594721056875e-05 6.009615384615e-02
          1.107000423861e-02 -3.889110465673e-05 9.214261390117e-02
          1.614972046067e-02 -3.381646307626e-05 9.188501245706e-02
          1.371440858809e-02 -3.624934206984e-05 8.698861245954e-02
          4.595449195916e-02 -4.041466574268e-06 1.754807692308e-01
          5.000000000000e-02 0.000000000000e+00 1.778846153846e-01
          4.595449195916e-02 -4.041466574267e-06 2.043269230769e-01
          3.995508040841e-03 -4.595853342573e-05 2.139423076923e-01
          3.995508040841e-03 -4.595853342573e-05 1.754807692308e-01
          -5.000000000000e-05 -5.000000000000e-05 1.778846153846e-01
          3.995508040841e-03 -4.595853342573e-05 3.605769230769e-02
          4.595449195916e-02 -4.041466574267e-06 3.605769230769e-02
          1.100975507201e-02 -3.895129363436e-05 2.333435655237e-01
          9.061244810275e-03 -4.089785733239e-05 2.291641972774e-01
          6.450146651572e-03 -4.350634700143e-05 2.351235412783e-01
          4.366678355731e-02 -6.326889553142e-06 2.348316427699e-01
          4.200476369258e-02 -7.987249058366e-06 2.296354140219e-01
          3.953299965335e-02 -1.045654380285e-05 2.334514724960e-01
          6.450146651571e-03 -4.350634700143e-05 1.487645872171e-02
          9.080207713298e-03 -4.087891337333e-05 2.095135313484e-02
          1.099546177526e-02 -3.896557265208e-05 1.668843470379e-02
          3.930544975595e-02 -1.068386637767e-05 1.661602810989e-02
          4.120422639026e-02 -8.786986623115e-06 2.091640355295e-02
          4.349985334843e-02 -6.493652998573e-06 1.487645872171e-02
          4.500054384789e-03 -4.545449112409e-05 2.393602286708e-01
          -5.000000000000e-05 -5.000000000000e-05 2.355769230769e-01
          4.544994561521e-02 -4.545508875913e-06 2.393602286708e-01
          5.000000000000e-02 0.000000000000e+00 2.355769230769e-01
          4.500054384789e-03 -4.545449112409e-05 1.063977132924e-02
          -5.000000000000e-05 -5.000000000000e-05 1.442307692308e-02
          4.544994561521e-02 -4.545508875913e-06 1.063977132924e-02
          5.000000000000e-02 0.000000000000e+00 1.442307692308e-02
          4.593000643927e-02 -4.065927633101e-06 1.467620455252e-01
          5.000000000000e-02 0.000000000000e+00 1.490384615385e-01
          2.262154626687e-02 -2.735110263050e-05 3.221577698463e-02
          1.783893481758e-02 -3.212893624618e-05 3.273706545803e-02
          4.555294530026e-03 -4.539930616381e-05 1.160808749101e-01
          4.601334785922e-02 -3.982669471309e-06 2.283653846154e-01
          5.000000000000e-02 0.000000000000e+00 2.307692307692e-01
          3.843781981350e-02 -1.155062955694e-05 2.217022445159e-01
          3.825409668041e-02 -1.173416915044e-05 2.256817166050e-01
          1.658658378546e-02 -3.338003617836e-05 2.224216971360e-01
          1.197763182699e-02 -3.798438378922e-05 2.211862497803e-01
          1.310418877331e-02 -3.685895227442e-05 2.257172349471e-01
          1.768778476690e-02 -3.227993529780e-05 2.269299509704e-01
          1.116768587504e-02 -3.879352060435e-05 1.525711949314e-01
          7.222475198010e-03 -4.273479001198e-05 1.504645471529e-01
          2.237525153341e-02 -2.759715131528e-05 6.006238674246e-02
          3.878038835692e-02 -1.120840323984e-05 8.989399338729e-02
          2.875876603228e-02 -2.122001395377e-05 7.169140978053e-02
          4.494587664506e-03 -4.545995238311e-05 2.310139235996e-01
          -5.000000000000e-05 -5.000000000000e-05 2.307692307692e-01
          4.545541233549e-02 -4.540047616889e-06 1.898607640042e-02
          5.000000000000e-02 0.000000000000e+00 1.923076923077e-02
          4.494587664506e-03 -4.545995238311e-05 1.898607640042e-02
          -5.000000000000e-05 -5.000000000000e-05 1.923076923077e-02
          4.606377181972e-02 -3.932295884395e-06 1.035097639342e-01
          5.000000000000e-02 0.000000000000e+00 1.057692307692e-01
          2.190096997889e-02 -2.807095906204e-05 1.622758905295e-01
          2.212613080327e-02 -2.784602317356e-05 1.904271462324e-01
          3.781447737659e-03 -4.617237988246e-05 2.043269230769e-01
          1.411245529544e-02 -3.585169301155e-05 2.301832134365e-01
          1.402434696096e-02 -3.593971332571e-05 1.988779143418e-02
          1.309233444854e-02 -3.687079475670e-05 2.431745827050e-02
          1.167699476188e-02 -3.828472051760e-05 1.286442155899e-01
          4.613867780648e-02 -3.857464728789e-06 4.555590214616e-02
          2.658470670964e-02 -2.339190138897e-05 9.902243109084e-02
          3.069802313721e-02 -1.928269416862e-05 9.831414634370e-02
          3.916235190073e-02 -1.082682127799e-05 2.001129948732e-01
          1.074509973288e-02 -3.921568458254e-05 1.714431198231e-01
          4.000656030448e-02 -9.983456239278e-06 2.180980616991e-01
          1.006852326333e-02 -3.989158515151e-05 4.972117308966e-02
          1.119280212809e-02 -3.876842944247e-05 2.171855162145e-01
          9.552658788612e-03 -4.040693427711e-05 8.333798771759e-02
          1.172671264303e-02 -3.823505230467e-05 7.929368613222e-02
          9.496308099950e-03 -4.046322867138e-05 7.529202368253e-02
          2.914526772216e-02 -2.083389837946e-05 2.360492199037e-01
          3.516532401054e-02 -1.481985613332e-05 2.353185908548e-01
          3.168801404691e-02 -1.829369226083e-05 2.312479402959e-01
          3.159792001125e-02 -1.838369629246e-05 1.881368576957e-02
          3.510411659875e-02 -1.488100239885e-05 1.470449710703e-02
          2.912348535998e-02 -2.085565898104e-05 1.397178215856e-02
          3.768601554914e-03 -4.618521323185e-05 1.512948333183e-01
          3.926588618086e-03 -4.602738399792e-05 7.016451726967e-02
          3.990303092238e-02 -1.008688219542e-05 5.004452694942e-02
          3.877545616071e-03 -4.607637800592e-05 4.529615800886e-02
          2.262057933152e-02 -2.735206859988e-05 1.420530741697e-01
          4.150742135008e-02 -8.484094555369e-06 7.559126944657e-02
          4.151019960772e-02 -8.481319073202e-06 8.256176477425e-02
          1.991035100241e-02 -3.005958940819e-05 8.750823141485e-02
          1.734947632324e-02 -3.261790577099e-05 8.385373791082e-02
          4.605393636854e-02 -3.942121509951e-06 2.134863525733e-01
          1.022236347733e-02 -3.973789862404e-05 1.995125610876e-01
          3.457450963314e-02 -1.541008028657e-05 1.003871632253e-01
          4.068608504586e-03 -4.588550598942e-05 1.265192985619e-01
          2.156874057506e-02 -2.840285656837e-05 1.000322962214e-01
          9.700761906969e-03 -4.025897911392e-05 1.476209526287e-01
          2.019861854108e-02 -2.977160984907e-05 1.277852814195e-01
          4.603866409183e-02 -3.957378529639e-06 7.027627138658e-02
          4.628145986589e-02 -3.714825308798e-06 1.276048978787e-01
          5.000000000000e-02 0.000000000000e+00 1.250000000000e-01
          2.791523079815e-02 -2.206270649535e-05 1.077160605511e-01
          2.610652978098e-02 -2.386960061840e-05 1.128113137158e-01
          1.454844815221e-02 -3.541613571208e-05 1.174568399161e-01
          1.454716679353e-02 -3.541741579068e-05 1.128437563021e-01
          3.080382992367e-02 -1.917699308325e-05 1.486404891406e-01
          3.082346037856e-02 -1.915738223920e-05 1.775020775577e-01
          2.109431344386e-02 -2.887680974640e-05 2.233763240238e-01
          3.248250000000e-02 -1.750000000000e-05 2.465999453990e-01
          1.746750000000e-02 -3.250000000000e-05 2.465999453990e-01
          1.746750000000e-02 -3.250000000000e-05 3.400054600995e-03
          3.248250000000e-02 -1.750000000000e-05 3.400054600995e-03
          3.502275781453e-03 -4.645127294560e-05 1.082974090012e-01
          -5.000000000000e-05 -5.000000000000e-05 1.057692307692e-01
          9.456468207092e-03 -4.050302876414e-05 2.680569763742e-02
          1.297819858209e-02 -3.698481660130e-05 2.860046578706e-02
          9.133951900168e-03 -4.082522287696e-05 2.240216615953e-01
          2.146347919442e-02 -2.850801279279e-05 7.468050555291e-02
          1.763577009269e-02 -3.233189800930e-05 7.915178222308e-02
          2.089813232552e-02 -2.907279487960e-05 8.287707643731e-02
          4.094238665349e-02 -9.048564781724e-06 1.096609583819e-01
          4.270471714900e-02 -7.287994856142e-06 1.060458546718e-01
          2.541959275541e-02 -2.455585139320e-05 2.351542847953e-01
          2.539157410420e-02 -2.458384205374e-05 1.488233100946e-02
          1.868698875615e-02 -3.128172951434e-05 9.605941741201e-02
          2.118809073538e-02 -2.878312613848e-05 2.046715866362e-01
          3.025575374820e-02 -1.972452173007e-05 3.692452414433e-02
          3.666664131432e-02 -1.332003864704e-05 1.193491256659e-01
          3.065757221862e-02 -1.932310467670e-05 2.126724549623e-01
          1.999081033417e-02 -2.997921045537e-05 3.677234362914e-02
          1.009025736994e-02 -3.986987275730e-05 2.374301033795e-01
          4.008818163865e-02 -9.901916444903e-06 1.246521954497e-02
          1.008420582173e-02 -3.987591826001e-05 1.257790695001e-02
          4.015524322817e-02 -9.834921849981e-06 2.375016908021e-01
          1.720116022134e-02 -3.276607370496e-05 1.343641189862e-01
          1.334280561055e-02 -3.662057381563e-05 1.336702757758e-01
          2.779018912698e-02 -2.218762324977e-05 5.953879018581e-02
          3.308705824643e-02 -1.689604570787e-05 9.589972199232e-02
          1.401327484911e-02 -3.595077437651e-05 8.253632046849e-02
          1.394969321176e-02 -3.601429249574e-05 7.594832725006e-02
          4.614826798256e-02 -3.847884133308e-06 1.090556319737e-01
          1.036058302127e-02 -3.959981716156e-05 1.110528173692e-01
          3.345006437076e-03 -4.660838517775e-05 1.850438273956e-01
          -5.000000000000e-05 -5.000000000000e-05 1.826923076923e-01
          4.660499356292e-02 -3.391614822254e-06 1.561976735494e-01
          5.000000000000e-02 0.000000000000e+00 1.538461538462e-01
          4.660499356292e-02 -3.391614822254e-06 1.850438273956e-01
          5.000000000000e-02 0.000000000000e+00 1.826923076923e-01
          3.720999569461e-03 -4.623276766288e-05 1.026283550386e-01
          3.381114055672e-02 -1.617268675652e-05 5.455199012697e-02
          3.204679878781e-02 -1.793526594625e-05 7.110869331268e-02
          4.108255388635e-02 -8.908537576071e-06 2.601034978122e-02
          3.757486393679e-02 -1.241272333987e-05 2.428428402319e-02
          2.902733580885e-02 -2.095171247867e-05 1.948433113715e-01
          3.870895532275e-02 -1.127976491234e-05 1.259490187332e-01
          3.103195402878e-02 -1.894909687435e-05 6.344450749372e-02
          3.559809250207e-02 -1.438751997796e-05 3.701337650434e-02
          4.064898382297e-02 -9.341674502524e-06 1.418878564194e-01
          3.677583706347e-02 -1.321095198454e-05 1.437211545443e-01
          3.193008476753e-02 -1.805186336910e-05 1.207145312437e-01
          2.878555689226e-02 -2.119324985788e-05 1.167654499125e-01
          2.129246802794e-02 -2.867885311894e-05 5.496438801318e-02
          3.534945597685e-02 -1.463590811504e-05 1.769850910880e-01
          3.675107575461e-02 -1.323568855684e-05 1.724966848940e-01
          3.534921447867e-02 -1.463614937196e-05 1.481502810893e-01
          4.099637795190e-02 -8.994627420678e-06 3.918814118803e-03
          8.953622048099e-03 -4.100537257932e-05 3.918814118803e-03
          4.099637795190e-02 -8.994627420678e-06 2.460811858812e-01
          8.953622048099e-03 -4.100537257932e-05 2.460811858812e-01
          1.352908962883e-02 -3.643447589527e-05 1.415568599640e-01
          1.579538777059e-02 -3.417044178762e-05 2.673856131287e-02
          2.121823694324e-02 -2.875301004671e-05 1.674250769081e-01
          1.642105084591e-02 -3.354540375034e-05 1.095221259517e-01
          4.056138028897e-02 -9.429190520514e-06 1.705084352765e-01
          1.486939895888e-02 -3.509550553558e-05 3.671140922411e-02
          1.353537433939e-02 -3.642819746315e-05 3.256498360486e-02
          1.464169072022e-02 -3.532298629348e-05 1.988108672780e-01
          2.317209738561e-02 -2.680110151288e-05 1.711588433567e-01
          3.522581751049e-02 -1.475942306644e-05 2.192341761594e-01
          2.820567049852e-02 -2.177255694453e-05 2.410557430029e-01
          2.820145890242e-02 -2.177676433325e-05 8.948503345852e-03
          3.672177407400e-02 -1.326496096504e-05 2.302928131217e-01
          3.643008848979e-02 -1.355635515505e-05 1.981702477788e-02
          4.632863469450e-02 -3.667697607888e-06 1.217566819066e-01
          8.798252739809e-03 -4.116058667352e-05 9.622798280513e-02
          1.038514490174e-02 -3.957527981844e-05 1.380343704564e-01
          6.674008440394e-03 -4.328270885076e-05 1.359243989958e-01
          4.633903449514e-02 -3.657308196667e-06 2.323330025542e-01
          2.384564441618e-02 -2.612822735647e-05 2.199831519919e-01
          2.100903188022e-02 -2.896200611367e-05 2.410389722220e-01
          2.100537405112e-02 -2.896566028859e-05 8.965753132373e-03
          2.653820537912e-02 -2.343835626462e-05 1.986559084049e-01
          1.807582480528e-02 -3.189228291181e-05 6.254975658353e-02
          9.537407109757e-03 -4.042217071952e-05 1.333284761841e-01
          3.591190951042e-03 -4.636244660236e-05 1.794064132664e-01
          4.635880904896e-02 -3.637553397644e-06 1.794064132664e-01
          4.128882610267e-02 -8.702471425901e-06 1.964958687696e-01
          8.668282286791e-03 -4.129042728592e-05 1.676765064564e-01
          1.835234276125e-02 -3.161604119755e-05 2.308875679876e-01
          1.819096420680e-02 -3.177725853467e-05 1.923936025944e-02
          3.070164547475e-03 -4.688295250002e-05 1.370192307692e-01
          3.411494075009e-02 -1.586919005985e-05 8.760266606882e-02
          4.642362739620e-02 -3.572799803991e-06 1.506560749197e-01
          1.670383075816e-02 -3.326290633550e-05 1.303562065781e-01
          4.618162137997e-02 -3.814564055977e-06 1.674553027094e-01
          4.618162137997e-02 -3.814564055977e-06 1.963014565555e-01
          3.768378620033e-03 -4.618543594402e-05 1.674553027094e-01
          3.524838195394e-02 -1.473688116490e-05 2.230877540350e-01
          3.493150726146e-02 -1.505343929924e-05 2.677906504403e-02
          1.596474305256e-02 -3.400125569174e-05 2.974562254551e-02
          2.209633912823e-02 -2.787578508668e-05 1.134332205882e-01
          1.859269393312e-02 -3.137593013674e-05 1.156124477097e-01
          3.425912971793e-02 -1.572514513693e-05 1.700277469630e-01
          1.475141067565e-02 -3.521337594840e-05 1.703544013741e-01
          3.520891408230e-02 -1.477630960809e-05 1.992311376223e-01
          3.426082361961e-02 -1.572345292746e-05 1.412157166612e-01
          3.484752559750e-02 -1.513733706543e-05 5.033902624519e-02
          1.525619638602e-02 -3.470909451946e-05 4.974921184350e-02
          4.697408403437e-02 -3.022893072553e-06 9.375000000000e-02
          4.235093357356e-02 -7.641425001436e-06 1.026767970068e-01
          3.479847455296e-02 -1.518633910793e-05 2.979420699137e-02
          1.546544972671e-02 -3.450005022307e-05 2.178863403064e-01
          2.954529905272e-03 -4.699847162311e-05 1.947115384615e-01
          1.027659471434e-02 -3.968372156409e-05 3.093948824645e-02
          2.959409446845e-02 -2.038552001153e-05 1.025788268329e-01
          3.229851626887e-02 -1.768379993120e-05 2.390482710609e-01
          3.228400431041e-02 -1.769829739220e-05 1.095878851079e-02
          1.523155244934e-02 -3.473371383682e-05 1.946117205696e-01
          4.900000000000e-02 9.700000000000e-03 2.451923076923e-01
          4.900000000000e-02 9.700000000000e-03 4.807692307692e-03
          4.950000000000e-02 4.850000000000e-03 5.528846153846e-02
          4.900000000000e-02 9.700000000000e-03 5.769230769231e-02
          4.900000000000e-02 9.700000000000e-03 5.288461538462e-02
          4.950000000000e-02 4.850000000000e-03 4.567307692308e-02
          4.900000000000e-02 9.700000000000e-03 4.807692307693e-02
          4.900000000000e-02 9.700000000000e-03 4.326923076923e-02
          4.950000000000e-02 4.850000000000e-03 3.605769230769e-02
          4.900000000000e-02 9.700000000000e-03 3.846153846154e-02
          4.900000000000e-02 9.700000000000e-03 3.365384615385e-02
          4.950000000000e-02 4.850000000000e-03 1.201923076923e-02
          4.900000000000e-02 9.700000000000e-03 1.442307692308e-02
          4.900000000000e-02 9.700000000000e-03 9.615384615385e-03
          4.950000000000e-02 4.850000000000e-03 2.163461538462e-02
          4.900000000000e-02 9.700000000000e-03 2.403846153846e-02
          4.900000000000e-02 9.700000000000e-03 1.923076923077e-02
          4.950000000000e-02 4.850000000000e-03 2.283653846154e-01
          4.900000000000e-02 9.700000000000e-03 2.307692307692e-01
          4.900000000000e-02 9.700000000000e-03 2.259615384615e-01
          4.950000000000e-02 4.850000000000e-03 2.187500000000e-01
          4.900000000000e-02 9.700000000000e-03 2.211538461538e-01
          4.900000000000e-02 9.700000000000e-03 2.163461538462e-01
          4.950000000000e-02 4.850000000000e-03 2.043269230769e-01
          4.900000000000e-02 9.700000000000e-03 2.067307692308e-01
          4.900000000000e-02 9.700000000000e-03 2.019230769231e-01
          4.950000000000e-02 4.850000000000e-03 1.947115384615e-01
          4.900000000000e-02 9.700000000000e-03 1.971153846154e-01
          4.900000000000e-02 9.700000000000e-03 1.923076923077e-01
          4.950000000000e-02 4.850000000000e-03 1.802884615385e-01
          4.900000000000e-02 9.700000000000e-03 1.826923076923e-01
          4.900000000000e-02 9.700000000000e-03 1.778846153846e-01
          4.950000000000e-02 4.850000000000e-03 1.466346153846e-01
          4.900000000000e-02 9.700000000000e-03 1.490384615385e-01
          4.900000000000e-02 9.700000000000e-03 1.442307692308e-01
          4.950000000000e-02 4.850000000000e-03 1.081730769231e-01
          4.900000000000e-02 9.700000000000e-03 1.105769230769e-01
          4.900000000000e-02 9.700000000000e-03 1.057692307692e-01
          4.950000000000e-02 4.850000000000e-03 2.379807692308e-01
          4.900000000000e-02 9.700000000000e-03 2.403846153846e-01
          4.900000000000e-02 9.700000000000e-03 2.355769230769e-01
          4.950000000000e-02 4.850000000000e-03 1.370192307692e-01
          4.900000000000e-02 9.700000000000e-03 1.394230769231e-01
          4.900000000000e-02 9.700000000000e-03 1.346153846154e-01
          4.950000000000e-02 4.850000000000e-03 8.894230769231e-02
          4.900000000000e-02 9.700000000000e-03 9.134615384616e-02
          4.900000000000e-02 9.700000000000e-03 8.653846153846e-02
          4.950000000000e-02 4.850000000000e-03 1.177884615385e-01
          4.900000000000e-02 9.700000000000e-03 1.201923076923e-01
          4.900000000000e-02 9.700000000000e-03 1.153846153846e-01
          4.950000000000e-02 4.850000000000e-03 6.490384615385e-02
          4.900000000000e-02 9.700000000000e-03 6.730769230769e-02
          4.900000000000e-02 9.700000000000e-03 6.250000000000e-02
          4.950000000000e-02 4.850000000000e-03 1.706730769231e-01
          4.900000000000e-02 9.700000000000e-03 1.730769230769e-01
          4.900000000000e-02 9.700000000000e-03 1.682692307692e-01
          4.950000000000e-02 4.850000000000e-03 1.610576923077e-01
          4.900000000000e-02 9.700000000000e-03 1.634615384615e-01
          4.900000000000e-02 9.700000000000e-03 1.586538461538e-01
          4.950000000000e-02 4.850000000000e-03 1.274038461538e-01
          4.900000000000e-02 9.700000000000e-03 1.298076923077e-01
          4.900000000000e-02 9.700000000000e-03 1.250000000000e-01
          4.950000000000e-02 4.850000000000e-03 9.855769230769e-02
          4.900000000000e-02 9.700000000000e-03 1.009615384615e-01
          4.900000000000e-02 9.700000000000e-03 9.615384615385e-02
          4.950000000000e-02 4.850000000000e-03 7.932692307693e-02
          4.900000000000e-02 9.700000000000e-03 8.173076923077e-02
          4.900000000000e-02 9.700000000000e-03 7.692307692308e-02
          4.950000000000e-02 4.850000000000e-03 3.080369641026e-02
          4.900000000000e-02 9.700000000000e-03 2.884615384615e-02
          4.950000000000e-02 4.850000000000e-03 6.765234871795e-03
          4.950000000000e-02 4.850000000000e-03 2.432347651282e-01
          4.950000000000e-02 4.850000000000e-03 1.518886112821e-01
          4.900000000000e-02 9.700000000000e-03 1.538461538462e-01
          4.950000000000e-02 4.850000000000e-03 1.894575425641e-01
          4.900000000000e-02 9.700000000000e-03 1.875000000000e-01
          4.950000000000e-02 4.850000000000e-03 7.407292717949e-02
          4.900000000000e-02 9.700000000000e-03 7.211538461539e-02
          4.950000000000e-02 4.850000000000e-03 2.134960041026e-01
          4.900000000000e-02 9.700000000000e-03 2.115384615385e-01
          4.956769451053e-02 4.193363247898e-03 5.048076923077e-02
          4.956769451053e-02 4.193363247898e-03 1.682692307692e-02
          4.956769451053e-02 4.193363247898e-03 4.086538461539e-02
          4.943230548947e-02 5.506636752102e-03 6.009615384616e-02
          4.943230548947e-02 5.506636752102e-03 1.418269230769e-01
          4.943230548947e-02 5.506636752102e-03 1.754807692308e-01
          4.956769451053e-02 4.193363247898e-03 1.995192307692e-01
          4.956769451053e-02 4.193363247898e-03 9.375000000000e-02
          4.956769451053e-02 4.193363247898e-03 2.235576923077e-01
          4.943230548947e-02 5.506636752102e-03 1.129807692308e-01
          4.943230548947e-02 5.506636752102e-03 1.033653846154e-01
          4.956769451053e-02 4.193363247898e-03 1.225961538462e-01
          4.956769451053e-02 4.193363247898e-03 8.413461538462e-02
          4.956769451053e-02 4.193363247898e-03 2.331730769231e-01
          4.943230548947e-02 5.506636752102e-03 1.322115384615e-01
          4.943230548947e-02 5.506636752102e-03 1.658653846154e-01
          4.942102307105e-02 5.616076210786e-03 2.621915589744e-02
          4.957897692895e-02 4.083923789214e-03 1.848730020513e-01
          4.957897692895e-02 4.083923789214e-03 1.564731517949e-01
          4.942102307105e-02 5.616076210786e-03 2.089114635897e-01
          4.957897692895e-02 4.083923789214e-03 6.948838666667e-02
          4.610000000000e-02 1.910000000000e-02 4.807692307692e-03
          4.610000000000e-02 1.910000000000e-02 2.451923076923e-01
          4.755000000000e-02 1.440000000000e-02 2.163461538462e-02
          4.610000000000e-02 1.910000000000e-02 1.923076923077e-02
          4.610000000000e-02 1.910000000000e-02 2.403846153846e-02
          4.755000000000e-02 1.440000000000e-02 5.048076923077e-02
          4.610000000000e-02 1.910000000000e-02 4.807692307693e-02
          4.610000000000e-02 1.910000000000e-02 5.288461538462e-02
          4.755000000000e-02 1.440000000000e-02 4.086538461539e-02
          4.610000000000e-02 1.910000000000e-02 3.846153846154e-02
          4.610000000000e-02 1.910000000000e-02 4.326923076923e-02
          4.755000000000e-02 1.440000000000e-02 3.125000000000e-02
          4.610000000000e-02 1.910000000000e-02 2.884615384615e-02
          4.610000000000e-02 1.910000000000e-02 3.365384615385e-02
          4.755000000000e-02 1.440000000000e-02 7.211538461539e-03
          4.610000000000e-02 1.910000000000e-02 9.615384615385e-03
          4.755000000000e-02 1.440000000000e-02 6.009615384616e-02
          4.610000000000e-02 1.910000000000e-02 5.769230769231e-02
          4.610000000000e-02 1.910000000000e-02 6.250000000000e-02
          4.755000000000e-02 1.440000000000e-02 2.379807692308e-01
          4.610000000000e-02 1.910000000000e-02 2.355769230769e-01
          4.610000000000e-02 1.910000000000e-02 2.403846153846e-01
          4.755000000000e-02 1.440000000000e-02 8.894230769231e-02
          4.610000000000e-02 1.910000000000e-02 8.653846153846e-02
          4.610000000000e-02 1.910000000000e-02 9.134615384616e-02
          4.755000000000e-02 1.440000000000e-02 2.235576923077e-01
          4.610000000000e-02 1.910000000000e-02 2.211538461538e-01
          4.610000000000e-02 1.910000000000e-02 2.259615384615e-01
          4.755000000000e-02 1.440000000000e-02 2.139423076923e-01
          4.610000000000e-02 1.910000000000e-02 2.115384615385e-01
          4.610000000000e-02 1.910000000000e-02 2.163461538462e-01
          4.755000000000e-02 1.440000000000e-02 1.995192307692e-01
          4.610000000000e-02 1.910000000000e-02 1.971153846154e-01
          4.610000000000e-02 1.910000000000e-02 2.019230769231e-01
          4.755000000000e-02 1.440000000000e-02 1.274038461538e-01
          4.610000000000e-02 1.910000000000e-02 1.250000000000e-01
          4.610000000000e-02 1.910000000000e-02 1.298076923077e-01
          4.755000000000e-02 1.440000000000e-02 7.932692307693e-02
          4.610000000000e-02 1.910000000000e-02 7.692307692308e-02
          4.610000000000e-02 1.910000000000e-02 8.173076923077e-02
          4.755000000000e-02 1.440000000000e-02 1.081730769231e-01
          4.610000000000e-02 1.910000000000e-02 1.057692307692e-01
          4.610000000000e-02 1.910000000000e-02 1.105769230769e-01
          4.755000000000e-02 1.440000000000e-02 6.971153846154e-02
          4.610000000000e-02 1.910000000000e-02 6.730769230769e-02
          4.610000000000e-02 1.910000000000e-02 7.211538461539e-02
          4.755000000000e-02 1.440000000000e-02 1.177884615385e-01
          4.610000000000e-02 1.910000000000e-02 1.153846153846e-01
          4.610000000000e-02 1.910000000000e-02 1.201923076923e-01
          4.755000000000e-02 1.440000000000e-02 1.802884615385e-01
          4.610000000000e-02 1.910000000000e-02 1.778846153846e-01
          4.610000000000e-02 1.910000000000e-02 1.826923076923e-01
          4.755000000000e-02 1.440000000000e-02 1.466346153846e-01
          4.610000000000e-02 1.910000000000e-02 1.442307692308e-01
          4.610000000000e-02 1.910000000000e-02 1.490384615385e-01
          4.755000000000e-02 1.440000000000e-02 1.370192307692e-01
          4.610000000000e-02 1.910000000000e-02 1.346153846154e-01
          4.610000000000e-02 1.910000000000e-02 1.394230769231e-01
          4.755000000000e-02 1.440000000000e-02 1.899038461538e-01
          4.610000000000e-02 1.910000000000e-02 1.875000000000e-01
          4.610000000000e-02 1.910000000000e-02 1.923076923077e-01
          4.755000000000e-02 1.440000000000e-02 1.706730769231e-01
          4.610000000000e-02 1.910000000000e-02 1.682692307692e-01
          4.610000000000e-02 1.910000000000e-02 1.730769230769e-01
          4.755000000000e-02 1.440000000000e-02 1.610576923077e-01
          4.610000000000e-02 1.910000000000e-02 1.586538461538e-01
          4.610000000000e-02 1.910000000000e-02 1.634615384615e-01
          4.755000000000e-02 1.440000000000e-02 9.855769230769e-02
          4.610000000000e-02 1.910000000000e-02 9.615384615385e-02
          4.610000000000e-02 1.910000000000e-02 1.009615384615e-01
          4.755000000000e-02 1.440000000000e-02 1.635149948718e-02
          4.610000000000e-02 1.910000000000e-02 1.442307692308e-02
          4.755000000000e-02 1.440000000000e-02 1.557745764103e-01
          4.610000000000e-02 1.910000000000e-02 1.538461538462e-01
          4.755000000000e-02 1.440000000000e-02 2.086591917949e-01
          4.610000000000e-02 1.910000000000e-02 2.067307692308e-01
          4.755000000000e-02 1.440000000000e-02 2.432638851282e-01
          4.755000000000e-02 1.440000000000e-02 2.288408082051e-01
          4.610000000000e-02 1.910000000000e-02 2.307692307692e-01
          4.775549246582e-02 1.373392097287e-02 3.605769230769e-02
          4.734450753418e-02 1.506607902713e-02 4.567307692308e-02
          4.734450753418e-02 1.506607902713e-02 5.528846153846e-02
          4.775549246582e-02 1.373392097287e-02 2.644230769231e-02
          4.775549246582e-02 1.373392097287e-02 6.490384615385e-02
          4.734450753418e-02 1.506607902713e-02 2.187500000000e-01
          4.734450753418e-02 1.506607902713e-02 1.322115384615e-01
          4.775549246582e-02 1.373392097287e-02 1.850961538462e-01
          4.775549246582e-02 1.373392097287e-02 1.947115384615e-01
          4.775549246582e-02 1.373392097287e-02 1.418269230769e-01
          4.734450753418e-02 1.506607902713e-02 1.129807692308e-01
          4.734450753418e-02 1.506607902713e-02 1.754807692308e-01
          4.734450753418e-02 1.506607902713e-02 1.225961538462e-01
          4.734450753418e-02 1.506607902713e-02 8.413461538462e-02
          4.734450753418e-02 1.506607902713e-02 1.033653846154e-01
          4.775549246582e-02 1.373392097287e-02 9.375000000000e-02
          4.734450753418e-02 1.506607902713e-02 1.658653846154e-01
          4.734450753418e-02 1.506607902713e-02 7.451923076923e-02
          4.731025878988e-02 1.517709219832e-02 1.178151897436e-02
          4.778974121012e-02 1.362290780168e-02 2.334107887179e-01
          4.778974121012e-02 1.362290780168e-02 2.040892112821e-01
          4.778974121012e-02 1.362290780168e-02 1.512045958974e-01
          4.792866164388e-02 1.317261398191e-02 3.605769230769e-03
          4.150000000000e-02 2.770000000000e-02 2.451923076923e-01
          4.380000000000e-02 2.340000000000e-02 4.567307692308e-02
          4.150000000000e-02 2.770000000000e-02 4.326923076923e-02
          4.150000000000e-02 2.770000000000e-02 4.807692307693e-02
          4.380000000000e-02 2.340000000000e-02 1.682692307692e-02
          4.150000000000e-02 2.770000000000e-02 1.442307692308e-02
          4.150000000000e-02 2.770000000000e-02 1.923076923077e-02
          4.380000000000e-02 2.340000000000e-02 3.605769230769e-02
          4.150000000000e-02 2.770000000000e-02 3.365384615385e-02
          4.150000000000e-02 2.770000000000e-02 3.846153846154e-02
          4.380000000000e-02 2.340000000000e-02 7.211538461539e-03
          4.150000000000e-02 2.770000000000e-02 4.807692307692e-03
          4.150000000000e-02 2.770000000000e-02 9.615384615385e-03
          4.380000000000e-02 2.340000000000e-02 5.528846153846e-02
          4.150000000000e-02 2.770000000000e-02 5.288461538462e-02
          4.150000000000e-02 2.770000000000e-02 5.769230769231e-02
          4.380000000000e-02 2.340000000000e-02 2.644230769231e-02
          4.150000000000e-02 2.770000000000e-02 2.403846153846e-02
          4.150000000000e-02 2.770000000000e-02 2.884615384615e-02
          4.380000000000e-02 2.340000000000e-02 2.235576923077e-01
          4.150000000000e-02 2.770000000000e-02 2.211538461538e-01
          4.150000000000e-02 2.770000000000e-02 2.259615384615e-01
          4.380000000000e-02 2.340000000000e-02 1.081730769231e-01
          4.150000000000e-02 2.770000000000e-02 1.057692307692e-01
          4.150000000000e-02 2.770000000000e-02 1.105769230769e-01
          4.380000000000e-02 2.340000000000e-02 1.995192307692e-01
          4.150000000000e-02 2.770000000000e-02 1.971153846154e-01
          4.150000000000e-02 2.770000000000e-02 2.019230769231e-01
          4.380000000000e-02 2.340000000000e-02 1.802884615385e-01
          4.150000000000e-02 2.770000000000e-02 1.778846153846e-01
          4.150000000000e-02 2.770000000000e-02 1.826923076923e-01
          4.380000000000e-02 2.340000000000e-02 1.706730769231e-01
          4.150000000000e-02 2.770000000000e-02 1.682692307692e-01
          4.150000000000e-02 2.770000000000e-02 1.730769230769e-01
          4.380000000000e-02 2.340000000000e-02 1.370192307692e-01
          4.150000000000e-02 2.770000000000e-02 1.346153846154e-01
          4.150000000000e-02 2.770000000000e-02 1.394230769231e-01
          4.380000000000e-02 2.340000000000e-02 2.379807692308e-01
          4.150000000000e-02 2.770000000000e-02 2.355769230769e-01
          4.150000000000e-02 2.770000000000e-02 2.403846153846e-01
          4.380000000000e-02 2.340000000000e-02 2.139423076923e-01
          4.150000000000e-02 2.770000000000e-02 2.115384615385e-01
          4.150000000000e-02 2.770000000000e-02 2.163461538462e-01
          4.380000000000e-02 2.340000000000e-02 6.490384615385e-02
          4.150000000000e-02 2.770000000000e-02 6.250000000000e-02
          4.150000000000e-02 2.770000000000e-02 6.730769230769e-02
          4.380000000000e-02 2.340000000000e-02 9.855769230769e-02
          4.150000000000e-02 2.770000000000e-02 9.615384615385e-02
          4.150000000000e-02 2.770000000000e-02 1.009615384615e-01
          4.380000000000e-02 2.340000000000e-02 8.894230769231e-02
          4.150000000000e-02 2.770000000000e-02 8.653846153846e-02
          4.150000000000e-02 2.770000000000e-02 9.134615384616e-02
          4.380000000000e-02 2.340000000000e-02 1.225961538462e-01
          4.150000000000e-02 2.770000000000e-02 1.201923076923e-01
          4.150000000000e-02 2.770000000000e-02 1.250000000000e-01
          4.380000000000e-02 2.340000000000e-02 7.932692307693e-02
          4.150000000000e-02 2.770000000000e-02 7.692307692308e-02
          4.150000000000e-02 2.770000000000e-02 8.173076923077e-02
          4.380000000000e-02 2.340000000000e-02 1.899038461538e-01
          4.150000000000e-02 2.770000000000e-02 1.875000000000e-01
          4.150000000000e-02 2.770000000000e-02 1.923076923077e-01
          4.380000000000e-02 2.340000000000e-02 1.610576923077e-01
          4.150000000000e-02 2.770000000000e-02 1.586538461538e-01
          4.150000000000e-02 2.770000000000e-02 1.634615384615e-01
          4.380000000000e-02 2.340000000000e-02 1.514423076923e-01
          4.150000000000e-02 2.770000000000e-02 1.490384615385e-01
          4.150000000000e-02 2.770000000000e-02 1.538461538462e-01
          4.380000000000e-02 2.340000000000e-02 1.461877917949e-01
          4.150000000000e-02 2.770000000000e-02 1.442307692308e-01
          4.380000000000e-02 2.340000000000e-02 2.086877917949e-01
          4.150000000000e-02 2.770000000000e-02 2.067307692308e-01
          4.380000000000e-02 2.340000000000e-02 7.015836205128e-02
          4.150000000000e-02 2.770000000000e-02 7.211538461539e-02
          4.380000000000e-02 2.340000000000e-02 1.134275928205e-01
          4.150000000000e-02 2.770000000000e-02 1.153846153846e-01
          4.380000000000e-02 2.340000000000e-02 1.278506697436e-01
          4.150000000000e-02 2.770000000000e-02 1.298076923077e-01
          4.380000000000e-02 2.340000000000e-02 2.288122082051e-01
          4.150000000000e-02 2.770000000000e-02 2.307692307692e-01
          4.380000000000e-02 2.340000000000e-02 2.432352851282e-01
          4.348834076296e-02 2.398266726925e-02 5.048076923077e-02
          4.348834076296e-02 2.398266726925e-02 1.201923076923e-02
          4.348834076296e-02 2.398266726925e-02 3.125000000000e-02
          4.411165923704e-02 2.281733273075e-02 4.086538461539e-02
          4.411165923704e-02 2.281733273075e-02 2.163461538462e-02
          4.348834076296e-02 2.398266726925e-02 6.009615384616e-02
          4.411165923704e-02 2.281733273075e-02 1.754807692308e-01
          4.348834076296e-02 2.398266726925e-02 1.947115384615e-01
          4.411165923704e-02 2.281733273075e-02 2.187500000000e-01
          4.411165923704e-02 2.281733273075e-02 1.850961538462e-01
          4.348834076296e-02 2.398266726925e-02 9.375000000000e-02
          4.348834076296e-02 2.398266726925e-02 1.033653846154e-01
          4.348834076296e-02 2.398266726925e-02 8.413461538462e-02
          4.348834076296e-02 2.398266726925e-02 1.562500000000e-01
          4.411165923704e-02 2.281733273075e-02 1.658653846154e-01
          4.343639755679e-02 2.407977848079e-02 2.333964887179e-01
          4.416360244321e-02 2.272022151921e-02 1.416035112821e-01
          4.343639755679e-02 2.407977848079e-02 7.474264256410e-02
          4.343639755679e-02 2.407977848079e-02 1.324349502564e-01
          4.343639755679e-02 2.407977848079e-02 1.180118733333e-01
          4.416360244321e-02 2.272022151921e-02 2.041035112821e-01
          4.320889384197e-02 2.450511151283e-02 3.605769230769e-03
          3.530000000000e-02 3.530000000000e-02 2.451923076923e-01
          3.530000000000e-02 3.530000000000e-02 4.807692307692e-03
          3.840000000000e-02 3.150000000000e-02 4.086538461539e-02
          3.530000000000e-02 3.530000000000e-02 4.326923076923e-02
          3.530000000000e-02 3.530000000000e-02 3.846153846154e-02
          3.840000000000e-02 3.150000000000e-02 5.528846153846e-02
          3.530000000000e-02 3.530000000000e-02 5.769230769231e-02
          3.530000000000e-02 3.530000000000e-02 5.288461538462e-02
          3.840000000000e-02 3.150000000000e-02 3.125000000000e-02
          3.530000000000e-02 3.530000000000e-02 3.365384615385e-02
          3.530000000000e-02 3.530000000000e-02 2.884615384615e-02
          3.840000000000e-02 3.150000000000e-02 2.163461538462e-02
          3.530000000000e-02 3.530000000000e-02 2.403846153846e-02
          3.530000000000e-02 3.530000000000e-02 1.923076923077e-02
          3.840000000000e-02 3.150000000000e-02 1.201923076923e-02
          3.530000000000e-02 3.530000000000e-02 1.442307692308e-02
          3.530000000000e-02 3.530000000000e-02 9.615384615385e-03
          3.840000000000e-02 3.150000000000e-02 2.379807692308e-01
          3.530000000000e-02 3.530000000000e-02 2.403846153846e-01
          3.530000000000e-02 3.530000000000e-02 2.355769230769e-01
          3.840000000000e-02 3.150000000000e-02 2.283653846154e-01
          3.530000000000e-02 3.530000000000e-02 2.307692307692e-01
          3.530000000000e-02 3.530000000000e-02 2.259615384615e-01
          3.840000000000e-02 3.150000000000e-02 2.187500000000e-01
          3.530000000000e-02 3.530000000000e-02 2.211538461538e-01
          3.530000000000e-02 3.530000000000e-02 2.163461538462e-01
          3.840000000000e-02 3.150000000000e-02 2.091346153846e-01
          3.530000000000e-02 3.530000000000e-02 2.115384615385e-01
          3.530000000000e-02 3.530000000000e-02 2.067307692308e-01
          3.840000000000e-02 3.150000000000e-02 1.947115384615e-01
          3.530000000000e-02 3.530000000000e-02 1.971153846154e-01
          3.530000000000e-02 3.530000000000e-02 1.923076923077e-01
          3.840000000000e-02 3.150000000000e-02 1.802884615385e-01
          3.530000000000e-02 3.530000000000e-02 1.826923076923e-01
          3.530000000000e-02 3.530000000000e-02 1.778846153846e-01
          3.840000000000e-02 3.150000000000e-02 1.466346153846e-01
          3.530000000000e-02 3.530000000000e-02 1.490384615385e-01
          3.530000000000e-02 3.530000000000e-02 1.442307692308e-01
          3.840000000000e-02 3.150000000000e-02 1.370192307692e-01
          3.530000000000e-02 3.530000000000e-02 1.394230769231e-01
          3.530000000000e-02 3.530000000000e-02 1.346153846154e-01
          3.840000000000e-02 3.150000000000e-02 1.081730769231e-01
          3.530000000000e-02 3.530000000000e-02 1.105769230769e-01
          3.530000000000e-02 3.530000000000e-02 1.057692307692e-01
          3.840000000000e-02 3.150000000000e-02 8.894230769231e-02
          3.530000000000e-02 3.530000000000e-02 9.134615384616e-02
          3.530000000000e-02 3.530000000000e-02 8.653846153846e-02
          3.840000000000e-02 3.150000000000e-02 1.177884615385e-01
          3.530000000000e-02 3.530000000000e-02 1.201923076923e-01
          3.530000000000e-02 3.530000000000e-02 1.153846153846e-01
          3.840000000000e-02 3.150000000000e-02 6.490384615385e-02
          3.530000000000e-02 3.530000000000e-02 6.730769230769e-02
          3.530000000000e-02 3.530000000000e-02 6.250000000000e-02
          3.840000000000e-02 3.150000000000e-02 1.706730769231e-01
          3.530000000000e-02 3.530000000000e-02 1.730769230769e-01
          3.530000000000e-02 3.530000000000e-02 1.682692307692e-01
          3.840000000000e-02 3.150000000000e-02 1.610576923077e-01
          3.530000000000e-02 3.530000000000e-02 1.634615384615e-01
          3.530000000000e-02 3.530000000000e-02 1.586538461538e-01
          3.840000000000e-02 3.150000000000e-02 1.274038461538e-01
          3.530000000000e-02 3.530000000000e-02 1.298076923077e-01
          3.530000000000e-02 3.530000000000e-02 1.250000000000e-01
          3.840000000000e-02 3.150000000000e-02 9.855769230769e-02
          3.530000000000e-02 3.530000000000e-02 1.009615384615e-01
          3.530000000000e-02 3.530000000000e-02 9.615384615385e-02
          3.840000000000e-02 3.150000000000e-02 7.932692307693e-02
          3.530000000000e-02 3.530000000000e-02 8.173076923077e-02
          3.530000000000e-02 3.530000000000e-02 7.692307692308e-02
          3.840000000000e-02 3.150000000000e-02 4.613862051282e-02
          3.530000000000e-02 3.530000000000e-02 4.807692307693e-02
          3.840000000000e-02 3.150000000000e-02 6.745994871795e-03
          3.840000000000e-02 3.150000000000e-02 1.519078512821e-01
          3.530000000000e-02 3.530000000000e-02 1.538461538462e-01
          3.840000000000e-02 3.150000000000e-02 7.017708205128e-02
          3.530000000000e-02 3.530000000000e-02 7.211538461539e-02
          3.840000000000e-02 3.150000000000e-02 1.894383025641e-01
          3.530000000000e-02 3.530000000000e-02 1.875000000000e-01
          3.840000000000e-02 3.150000000000e-02 1.999847743590e-01
          3.530000000000e-02 3.530000000000e-02 2.019230769231e-01
          3.840000000000e-02 3.150000000000e-02 2.432540051282e-01
          3.796725218049e-02 3.203046506907e-02 1.682692307692e-02
          3.796725218049e-02 3.203046506907e-02 3.605769230769e-02
          3.796725218049e-02 3.203046506907e-02 2.644230769231e-02
          3.883274781951e-02 3.096953493093e-02 6.009615384616e-02
          3.796725218049e-02 3.203046506907e-02 2.139423076923e-01
          3.796725218049e-02 3.203046506907e-02 1.754807692308e-01
          3.796725218049e-02 3.203046506907e-02 1.129807692308e-01
          3.883274781951e-02 3.096953493093e-02 2.235576923077e-01
          3.883274781951e-02 3.096953493093e-02 1.322115384615e-01
          3.796725218049e-02 3.203046506907e-02 1.033653846154e-01
          3.883274781951e-02 3.096953493093e-02 1.225961538462e-01
          3.796725218049e-02 3.203046506907e-02 9.375000000000e-02
          3.883274781951e-02 3.096953493093e-02 1.658653846154e-01
          3.883274781951e-02 3.096953493093e-02 8.413461538462e-02
          3.883274781951e-02 3.096953493093e-02 1.418269230769e-01
          3.796725218049e-02 3.203046506907e-02 2.331730769231e-01
          3.890487245609e-02 3.088112408608e-02 5.071354102564e-02
          3.890487245609e-02 3.088112408608e-02 1.564827717949e-01
          3.890487245609e-02 3.088112408608e-02 2.045596948718e-01
          3.789512754391e-02 3.211887591392e-02 1.848633820513e-01
          3.789512754391e-02 3.211887591392e-02 7.475200256410e-02
          2.770000000000e-02 4.150000000000e-02 2.451923076923e-01
          2.770000000000e-02 4.150000000000e-02 4.807692307692e-03
          3.150000000000e-02 3.840000000000e-02 4.086538461539e-02
          2.770000000000e-02 4.150000000000e-02 4.326923076923e-02
          2.770000000000e-02 4.150000000000e-02 3.846153846154e-02
          3.150000000000e-02 3.840000000000e-02 5.528846153846e-02
          2.770000000000e-02 4.150000000000e-02 5.769230769231e-02
          2.770000000000e-02 4.150000000000e-02 5.288461538462e-02
          3.150000000000e-02 3.840000000000e-02 3.125000000000e-02
          2.770000000000e-02 4.150000000000e-02 3.365384615385e-02
          2.770000000000e-02 4.150000000000e-02 2.884615384615e-02
          3.150000000000e-02 3.840000000000e-02 2.163461538462e-02
          2.770000000000e-02 4.150000000000e-02 2.403846153846e-02
          2.770000000000e-02 4.150000000000e-02 1.923076923077e-02
          3.150000000000e-02 3.840000000000e-02 1.201923076923e-02
          2.770000000000e-02 4.150000000000e-02 1.442307692308e-02
          2.770000000000e-02 4.150000000000e-02 9.615384615385e-03
          3.150000000000e-02 3.840000000000e-02 2.379807692308e-01
          2.770000000000e-02 4.150000000000e-02 2.403846153846e-01
          2.770000000000e-02 4.150000000000e-02 2.355769230769e-01
          3.150000000000e-02 3.840000000000e-02 2.235576923077e-01
          2.770000000000e-02 4.150000000000e-02 2.259615384615e-01
          2.770000000000e-02 4.150000000000e-02 2.211538461538e-01
          3.150000000000e-02 3.840000000000e-02 2.091346153846e-01
          2.770000000000e-02 4.150000000000e-02 2.115384615385e-01
          2.770000000000e-02 4.150000000000e-02 2.067307692308e-01
          3.150000000000e-02 3.840000000000e-02 1.947115384615e-01
          2.770000000000e-02 4.150000000000e-02 1.971153846154e-01
          2.770000000000e-02 4.150000000000e-02 1.923076923077e-01
          3.150000000000e-02 3.840000000000e-02 1.802884615385e-01
          2.770000000000e-02 4.150000000000e-02 1.826923076923e-01
          2.770000000000e-02 4.150000000000e-02 1.778846153846e-01
          3.150000000000e-02 3.840000000000e-02 1.466346153846e-01
          2.770000000000e-02 4.150000000000e-02 1.490384615385e-01
          2.770000000000e-02 4.150000000000e-02 1.442307692308e-01
          3.150000000000e-02 3.840000000000e-02 1.370192307692e-01
          2.770000000000e-02 4.150000000000e-02 1.394230769231e-01
          2.770000000000e-02 4.150000000000e-02 1.346153846154e-01
          3.150000000000e-02 3.840000000000e-02 1.081730769231e-01
          2.770000000000e-02 4.150000000000e-02 1.105769230769e-01
          2.770000000000e-02 4.150000000000e-02 1.057692307692e-01
          3.150000000000e-02 3.840000000000e-02 6.490384615385e-02
          2.770000000000e-02 4.150000000000e-02 6.730769230769e-02
          2.770000000000e-02 4.150000000000e-02 6.250000000000e-02
          3.150000000000e-02 3.840000000000e-02 1.225961538462e-01
          2.770000000000e-02 4.150000000000e-02 1.250000000000e-01
          2.770000000000e-02 4.150000000000e-02 1.201923076923e-01
          3.150000000000e-02 3.840000000000e-02 9.375000000000e-02
          2.770000000000e-02 4.150000000000e-02 9.615384615385e-02
          2.770000000000e-02 4.150000000000e-02 9.134615384616e-02
          3.150000000000e-02 3.840000000000e-02 7.932692307693e-02
          2.770000000000e-02 4.150000000000e-02 8.173076923077e-02
          2.770000000000e-02 4.150000000000e-02 7.692307692308e-02
          3.150000000000e-02 3.840000000000e-02 1.706730769231e-01
          2.770000000000e-02 4.150000000000e-02 1.730769230769e-01
          2.770000000000e-02 4.150000000000e-02 1.682692307692e-01
          3.150000000000e-02 3.840000000000e-02 1.610576923077e-01
          2.770000000000e-02 4.150000000000e-02 1.634615384615e-01
          2.770000000000e-02 4.150000000000e-02 1.586538461538e-01
          3.150000000000e-02 3.840000000000e-02 5.001522564103e-02
          2.770000000000e-02 4.150000000000e-02 4.807692307693e-02
          3.150000000000e-02 3.840000000000e-02 6.745994871795e-03
          3.150000000000e-02 3.840000000000e-02 1.134463128205e-01
          2.770000000000e-02 4.150000000000e-02 1.153846153846e-01
          3.150000000000e-02 3.840000000000e-02 1.519078512821e-01
          2.770000000000e-02 4.150000000000e-02 1.538461538462e-01
          3.150000000000e-02 3.840000000000e-02 2.288309282051e-01
          2.770000000000e-02 4.150000000000e-02 2.307692307692e-01
          3.150000000000e-02 3.840000000000e-02 8.847676410257e-02
          2.770000000000e-02 4.150000000000e-02 8.653846153846e-02
          3.150000000000e-02 3.840000000000e-02 1.317459948718e-01
          2.770000000000e-02 4.150000000000e-02 1.298076923077e-01
          3.150000000000e-02 3.840000000000e-02 1.028998410256e-01
          2.770000000000e-02 4.150000000000e-02 1.009615384615e-01
          3.150000000000e-02 3.840000000000e-02 1.894383025641e-01
          2.770000000000e-02 4.150000000000e-02 1.875000000000e-01
          3.150000000000e-02 3.840000000000e-02 2.038613794872e-01
          2.770000000000e-02 4.150000000000e-02 2.019230769231e-01
          3.150000000000e-02 3.840000000000e-02 7.405368717949e-02
          2.770000000000e-02 4.150000000000e-02 7.211538461539e-02
          3.150000000000e-02 3.840000000000e-02 2.144078512821e-01
          2.770000000000e-02 4.150000000000e-02 2.163461538462e-01
          3.150000000000e-02 3.840000000000e-02 2.432540051282e-01
          3.096953493093e-02 3.883274781951e-02 3.605769230769e-02
          3.096953493093e-02 3.883274781951e-02 1.682692307692e-02
          3.096953493093e-02 3.883274781951e-02 2.644230769231e-02
          3.096953493093e-02 3.883274781951e-02 6.009615384616e-02
          3.096953493093e-02 3.883274781951e-02 1.754807692308e-01
          3.203046506907e-02 3.796725218049e-02 1.418269230769e-01
          3.203046506907e-02 3.796725218049e-02 1.658653846154e-01
          3.088112408608e-02 3.890487245609e-02 4.544030512821e-02
          3.088112408608e-02 3.890487245609e-02 2.334058487179e-01
          3.088112408608e-02 3.890487245609e-02 1.271710743590e-01
          3.088112408608e-02 3.890487245609e-02 8.390184358975e-02
          3.088112408608e-02 3.890487245609e-02 1.848633820513e-01
          3.088112408608e-02 3.890487245609e-02 1.992864589744e-01
          3.088112408608e-02 3.890487245609e-02 9.832492051282e-02
          3.211887591392e-02 3.789512754391e-02 6.947876666667e-02
          3.211887591392e-02 3.789512754391e-02 1.180212333333e-01
          3.211887591392e-02 3.789512754391e-02 1.564827717949e-01
          3.088112408608e-02 3.890487245609e-02 2.189827717949e-01
          1.910000000000e-02 4.610000000000e-02 4.807692307692e-03
          1.910000000000e-02 4.610000000000e-02 2.451923076923e-01
          2.340000000000e-02 4.380000000000e-02 5.528846153846e-02
          1.910000000000e-02 4.610000000000e-02 5.288461538462e-02
          1.910000000000e-02 4.610000000000e-02 5.769230769231e-02
          2.340000000000e-02 4.380000000000e-02 4.086538461539e-02
          1.910000000000e-02 4.610000000000e-02 3.846153846154e-02
          1.910000000000e-02 4.610000000000e-02 4.326923076923e-02
          2.340000000000e-02 4.380000000000e-02 3.125000000000e-02
          1.910000000000e-02 4.610000000000e-02 2.884615384615e-02
          1.910000000000e-02 4.610000000000e-02 3.365384615385e-02
          2.340000000000e-02 4.380000000000e-02 2.163461538462e-02
          1.910000000000e-02 4.610000000000e-02 1.923076923077e-02
          1.910000000000e-02 4.610000000000e-02 2.403846153846e-02
          2.340000000000e-02 4.380000000000e-02 1.201923076923e-02
          1.910000000000e-02 4.610000000000e-02 9.615384615385e-03
          1.910000000000e-02 4.610000000000e-02 1.442307692308e-02
          2.340000000000e-02 4.380000000000e-02 2.379807692308e-01
          1.910000000000e-02 4.610000000000e-02 2.355769230769e-01
          1.910000000000e-02 4.610000000000e-02 2.403846153846e-01
          2.340000000000e-02 4.380000000000e-02 1.802884615385e-01
          1.910000000000e-02 4.610000000000e-02 1.778846153846e-01
          1.910000000000e-02 4.610000000000e-02 1.826923076923e-01
          2.340000000000e-02 4.380000000000e-02 1.706730769231e-01
          1.910000000000e-02 4.610000000000e-02 1.682692307692e-01
          1.910000000000e-02 4.610000000000e-02 1.730769230769e-01
          2.340000000000e-02 4.380000000000e-02 1.370192307692e-01
          1.910000000000e-02 4.610000000000e-02 1.346153846154e-01
          1.910000000000e-02 4.610000000000e-02 1.394230769231e-01
          2.340000000000e-02 4.380000000000e-02 2.187500000000e-01
          1.910000000000e-02 4.610000000000e-02 2.163461538462e-01
          1.910000000000e-02 4.610000000000e-02 2.211538461538e-01
          2.340000000000e-02 4.380000000000e-02 2.091346153846e-01
          1.910000000000e-02 4.610000000000e-02 2.067307692308e-01
          1.910000000000e-02 4.610000000000e-02 2.115384615385e-01
          2.340000000000e-02 4.380000000000e-02 1.225961538462e-01
          1.910000000000e-02 4.610000000000e-02 1.201923076923e-01
          1.910000000000e-02 4.610000000000e-02 1.250000000000e-01
          2.340000000000e-02 4.380000000000e-02 1.129807692308e-01
          1.910000000000e-02 4.610000000000e-02 1.105769230769e-01
          1.910000000000e-02 4.610000000000e-02 1.153846153846e-01
          2.340000000000e-02 4.380000000000e-02 8.894230769231e-02
          1.910000000000e-02 4.610000000000e-02 8.653846153846e-02
          1.910000000000e-02 4.610000000000e-02 9.134615384616e-02
          2.340000000000e-02 4.380000000000e-02 6.490384615385e-02
          1.910000000000e-02 4.610000000000e-02 6.250000000000e-02
          1.910000000000e-02 4.610000000000e-02 6.730769230769e-02
          2.340000000000e-02 4.380000000000e-02 2.283653846154e-01
          1.910000000000e-02 4.610000000000e-02 2.259615384615e-01
          1.910000000000e-02 4.610000000000e-02 2.307692307692e-01
          2.340000000000e-02 4.380000000000e-02 1.947115384615e-01
          1.910000000000e-02 4.610000000000e-02 1.923076923077e-01
          1.910000000000e-02 4.610000000000e-02 1.971153846154e-01
          2.340000000000e-02 4.380000000000e-02 1.610576923077e-01
          1.910000000000e-02 4.610000000000e-02 1.586538461538e-01
          1.910000000000e-02 4.610000000000e-02 1.634615384615e-01
          2.340000000000e-02 4.380000000000e-02 1.514423076923e-01
          1.910000000000e-02 4.610000000000e-02 1.490384615385e-01
          1.910000000000e-02 4.610000000000e-02 1.538461538462e-01
          2.340000000000e-02 4.380000000000e-02 1.033653846154e-01
          1.910000000000e-02 4.610000000000e-02 1.009615384615e-01
          1.910000000000e-02 4.610000000000e-02 1.057692307692e-01
          2.340000000000e-02 4.380000000000e-02 7.932692307693e-02
          1.910000000000e-02 4.610000000000e-02 7.692307692308e-02
          1.910000000000e-02 4.610000000000e-02 8.173076923077e-02
          2.340000000000e-02 4.380000000000e-02 4.611990051282e-02
          1.910000000000e-02 4.610000000000e-02 4.807692307693e-02
          2.340000000000e-02 4.380000000000e-02 6.764714871795e-03
          2.340000000000e-02 4.380000000000e-02 1.461877917949e-01
          1.910000000000e-02 4.610000000000e-02 1.442307692308e-01
          2.340000000000e-02 4.380000000000e-02 1.278506697436e-01
          1.910000000000e-02 4.610000000000e-02 1.298076923077e-01
          2.340000000000e-02 4.380000000000e-02 1.855429774359e-01
          1.910000000000e-02 4.610000000000e-02 1.875000000000e-01
          2.340000000000e-02 4.380000000000e-02 9.811086871795e-02
          1.910000000000e-02 4.610000000000e-02 9.615384615385e-02
          2.340000000000e-02 4.380000000000e-02 1.999660543590e-01
          1.910000000000e-02 4.610000000000e-02 2.019230769231e-01
          2.340000000000e-02 4.380000000000e-02 2.432352851282e-01
          2.340000000000e-02 4.380000000000e-02 7.015836205128e-02
          1.910000000000e-02 4.610000000000e-02 7.211538461539e-02
          2.281733273075e-02 4.411165923704e-02 3.605769230769e-02
          2.281733273075e-02 4.411165923704e-02 1.682692307692e-02
          2.281733273075e-02 4.411165923704e-02 2.644230769231e-02
          2.281733273075e-02 4.411165923704e-02 6.009615384616e-02
          2.281733273075e-02 4.411165923704e-02 2.331730769231e-01
          2.281733273075e-02 4.411165923704e-02 1.754807692308e-01
          2.398266726925e-02 4.348834076296e-02 1.562500000000e-01
          2.281733273075e-02 4.411165923704e-02 1.177884615385e-01
          2.398266726925e-02 4.348834076296e-02 1.081730769231e-01
          2.281733273075e-02 4.411165923704e-02 8.413461538462e-02
          2.281733273075e-02 4.411165923704e-02 1.658653846154e-01
          2.281733273075e-02 4.411165923704e-02 2.139423076923e-01
          2.398266726925e-02 4.348834076296e-02 2.235576923077e-01
          2.272022151921e-02 4.416360244321e-02 5.070418102564e-02
          2.407977848079e-02 4.343639755679e-02 1.901272579487e-01
          2.272022151921e-02 4.416360244321e-02 1.324349502564e-01
          2.407977848079e-02 4.343639755679e-02 1.416035112821e-01
          2.272022151921e-02 4.416360244321e-02 2.045503348718e-01
          2.272022151921e-02 4.416360244321e-02 9.352658820513e-02
          2.407977848079e-02 4.343639755679e-02 7.474264256410e-02
          9.700000000000e-03 4.900000000000e-02 2.451923076923e-01
          9.700000000000e-03 4.900000000000e-02 4.807692307692e-03
          1.440000000000e-02 4.755000000000e-02 5.528846153846e-02
          9.700000000000e-03 4.900000000000e-02 5.769230769231e-02
          9.700000000000e-03 4.900000000000e-02 5.288461538462e-02
          1.440000000000e-02 4.755000000000e-02 2.163461538462e-02
          9.700000000000e-03 4.900000000000e-02 2.403846153846e-02
          9.700000000000e-03 4.900000000000e-02 1.923076923077e-02
          1.440000000000e-02 4.755000000000e-02 1.201923076923e-02
          9.700000000000e-03 4.900000000000e-02 1.442307692308e-02
          9.700000000000e-03 4.900000000000e-02 9.615384615385e-03
          1.440000000000e-02 4.755000000000e-02 4.567307692308e-02
          9.700000000000e-03 4.900000000000e-02 4.807692307693e-02
          9.700000000000e-03 4.900000000000e-02 4.326923076923e-02
          1.440000000000e-02 4.755000000000e-02 3.605769230769e-02
          9.700000000000e-03 4.900000000000e-02 3.846153846154e-02
          9.700000000000e-03 4.900000000000e-02 3.365384615385e-02
          1.440000000000e-02 4.755000000000e-02 2.379807692308e-01
          9.700000000000e-03 4.900000000000e-02 2.403846153846e-01
          9.700000000000e-03 4.900000000000e-02 2.355769230769e-01
          1.440000000000e-02 4.755000000000e-02 2.235576923077e-01
          9.700000000000e-03 4.900000000000e-02 2.259615384615e-01
          9.700000000000e-03 4.900000000000e-02 2.211538461538e-01
          1.440000000000e-02 4.755000000000e-02 2.139423076923e-01
          9.700000000000e-03 4.900000000000e-02 2.163461538462e-01
          9.700000000000e-03 4.900000000000e-02 2.115384615385e-01
          1.440000000000e-02 4.755000000000e-02 1.947115384615e-01
          9.700000000000e-03 4.900000000000e-02 1.971153846154e-01
          9.700000000000e-03 4.900000000000e-02 1.923076923077e-01
          1.440000000000e-02 4.755000000000e-02 1.802884615385e-01
          9.700000000000e-03 4.900000000000e-02 1.826923076923e-01
          9.700000000000e-03 4.900000000000e-02 1.778846153846e-01
          1.440000000000e-02 4.755000000000e-02 1.466346153846e-01
          9.700000000000e-03 4.900000000000e-02 1.490384615385e-01
          9.700000000000e-03 4.900000000000e-02 1.442307692308e-01
          1.440000000000e-02 4.755000000000e-02 1.370192307692e-01
          9.700000000000e-03 4.900000000000e-02 1.394230769231e-01
          9.700000000000e-03 4.900000000000e-02 1.346153846154e-01
          1.440000000000e-02 4.755000000000e-02 1.225961538462e-01
          9.700000000000e-03 4.900000000000e-02 1.250000000000e-01
          9.700000000000e-03 4.900000000000e-02 1.201923076923e-01
          1.440000000000e-02 4.755000000000e-02 1.081730769231e-01
          9.700000000000e-03 4.900000000000e-02 1.105769230769e-01
          9.700000000000e-03 4.900000000000e-02 1.057692307692e-01
          1.440000000000e-02 4.755000000000e-02 8.894230769231e-02
          9.700000000000e-03 4.900000000000e-02 9.134615384616e-02
          9.700000000000e-03 4.900000000000e-02 8.653846153846e-02
          1.440000000000e-02 4.755000000000e-02 6.490384615385e-02
          9.700000000000e-03 4.900000000000e-02 6.730769230769e-02
          9.700000000000e-03 4.900000000000e-02 6.250000000000e-02
          1.440000000000e-02 4.755000000000e-02 2.043269230769e-01
          9.700000000000e-03 4.900000000000e-02 2.067307692308e-01
          9.700000000000e-03 4.900000000000e-02 2.019230769231e-01
          1.440000000000e-02 4.755000000000e-02 1.706730769231e-01
          9.700000000000e-03 4.900000000000e-02 1.730769230769e-01
          9.700000000000e-03 4.900000000000e-02 1.682692307692e-01
          1.440000000000e-02 4.755000000000e-02 1.610576923077e-01
          9.700000000000e-03 4.900000000000e-02 1.634615384615e-01
          9.700000000000e-03 4.900000000000e-02 1.586538461538e-01
          1.440000000000e-02 4.755000000000e-02 9.855769230769e-02
          9.700000000000e-03 4.900000000000e-02 1.009615384615e-01
          9.700000000000e-03 4.900000000000e-02 9.615384615385e-02
          1.440000000000e-02 4.755000000000e-02 7.932692307693e-02
          9.700000000000e-03 4.900000000000e-02 8.173076923077e-02
          9.700000000000e-03 4.900000000000e-02 7.692307692308e-02
          1.440000000000e-02 4.755000000000e-02 6.736114871795e-03
          1.440000000000e-02 4.755000000000e-02 3.077457641026e-02
          9.700000000000e-03 4.900000000000e-02 2.884615384615e-02
          1.440000000000e-02 4.755000000000e-02 1.519177312821e-01
          9.700000000000e-03 4.900000000000e-02 1.538461538462e-01
          1.440000000000e-02 4.755000000000e-02 1.855715774359e-01
          9.700000000000e-03 4.900000000000e-02 1.875000000000e-01
          1.440000000000e-02 4.755000000000e-02 2.288408082051e-01
          9.700000000000e-03 4.900000000000e-02 2.307692307692e-01
          1.440000000000e-02 4.755000000000e-02 2.432638851282e-01
          1.440000000000e-02 4.755000000000e-02 1.317361148718e-01
          9.700000000000e-03 4.900000000000e-02 1.298076923077e-01
          1.440000000000e-02 4.755000000000e-02 7.404380717949e-02
          9.700000000000e-03 4.900000000000e-02 7.211538461539e-02
          1.440000000000e-02 4.755000000000e-02 1.134561928205e-01
          9.700000000000e-03 4.900000000000e-02 1.153846153846e-01
          1.373392097287e-02 4.775549246582e-02 5.048076923077e-02
          1.506607902713e-02 4.734450753418e-02 4.086538461539e-02
          1.373392097287e-02 4.775549246582e-02 1.682692307692e-02
          1.506607902713e-02 4.734450753418e-02 6.009615384616e-02
          1.373392097287e-02 4.775549246582e-02 2.187500000000e-01
          1.373392097287e-02 4.775549246582e-02 1.754807692308e-01
          1.373392097287e-02 4.775549246582e-02 1.418269230769e-01
          1.373392097287e-02 4.775549246582e-02 2.091346153846e-01
          1.373392097287e-02 4.775549246582e-02 8.413461538462e-02
          1.373392097287e-02 4.775549246582e-02 9.375000000000e-02
          1.506607902713e-02 4.734450753418e-02 1.033653846154e-01
          1.506607902713e-02 4.734450753418e-02 1.658653846154e-01
          1.373392097287e-02 4.775549246582e-02 1.995192307692e-01
          1.362290780168e-02 4.778974121012e-02 2.620459589744e-02
          1.362290780168e-02 4.778974121012e-02 1.901415579487e-01
          1.517709219832e-02 4.731025878988e-02 1.271661343590e-01
          1.362290780168e-02 4.778974121012e-02 1.564877117949e-01
          1.362290780168e-02 4.778974121012e-02 1.180261733333e-01
          1.362290780168e-02 4.778974121012e-02 6.947382666667e-02
          1.517709219832e-02 4.731025878988e-02 2.334107887179e-01
          -1.000000000000e-04 4.990000000000e-02 4.807692307692e-03
          -1.000000000000e-04 4.990000000000e-02 2.451923076923e-01
          4.800000000000e-03 4.945000000000e-02 2.163461538462e-02
          -1.000000000000e-04 4.990000000000e-02 1.923076923077e-02
          -1.000000000000e-04 4.990000000000e-02 2.403846153846e-02
          4.800000000000e-03 4.945000000000e-02 1.201923076923e-02
          -1.000000000000e-04 4.990000000000e-02 9.615384615385e-03
          -1.000000000000e-04 4.990000000000e-02 1.442307692308e-02
          4.800000000000e-03 4.945000000000e-02 5.048076923077e-02
          -1.000000000000e-04 4.990000000000e-02 4.807692307693e-02
          -1.000000000000e-04 4.990000000000e-02 5.288461538462e-02
          4.800000000000e-03 4.945000000000e-02 4.086538461539e-02
          -1.000000000000e-04 4.990000000000e-02 3.846153846154e-02
          -1.000000000000e-04 4.990000000000e-02 4.326923076923e-02
          4.800000000000e-03 4.945000000000e-02 3.125000000000e-02
          -1.000000000000e-04 4.990000000000e-02 2.884615384615e-02
          -1.000000000000e-04 4.990000000000e-02 3.365384615385e-02
          4.800000000000e-03 4.945000000000e-02 6.009615384616e-02
          -1.000000000000e-04 4.990000000000e-02 5.769230769231e-02
          -1.000000000000e-04 4.990000000000e-02 6.250000000000e-02
          4.800000000000e-03 4.945000000000e-02 1.802884615385e-01
          -1.000000000000e-04 4.990000000000e-02 1.778846153846e-01
          -1.000000000000e-04 4.990000000000e-02 1.826923076923e-01
          4.800000000000e-03 4.945000000000e-02 1.466346153846e-01
          -1.000000000000e-04 4.990000000000e-02 1.442307692308e-01
          -1.000000000000e-04 4.990000000000e-02 1.490384615385e-01
          4.800000000000e-03 4.945000000000e-02 1.370192307692e-01
          -1.000000000000e-04 4.990000000000e-02 1.346153846154e-01
          -1.000000000000e-04 4.990000000000e-02 1.394230769231e-01
          4.800000000000e-03 4.945000000000e-02 2.235576923077e-01
          -1.000000000000e-04 4.990000000000e-02 2.211538461538e-01
          -1.000000000000e-04 4.990000000000e-02 2.259615384615e-01
          4.800000000000e-03 4.945000000000e-02 1.081730769231e-01
          -1.000000000000e-04 4.990000000000e-02 1.057692307692e-01
          -1.000000000000e-04 4.990000000000e-02 1.105769230769e-01
          4.800000000000e-03 4.945000000000e-02 9.855769230769e-02
          -1.000000000000e-04 4.990000000000e-02 9.615384615385e-02
          -1.000000000000e-04 4.990000000000e-02 1.009615384615e-01
          4.800000000000e-03 4.945000000000e-02 1.225961538462e-01
          -1.000000000000e-04 4.990000000000e-02 1.201923076923e-01
          -1.000000000000e-04 4.990000000000e-02 1.250000000000e-01
          4.800000000000e-03 4.945000000000e-02 8.894230769231e-02
          -1.000000000000e-04 4.990000000000e-02 8.653846153846e-02
          -1.000000000000e-04 4.990000000000e-02 9.134615384616e-02
          4.800000000000e-03 4.945000000000e-02 1.947115384615e-01
          -1.000000000000e-04 4.990000000000e-02 1.923076923077e-01
          -1.000000000000e-04 4.990000000000e-02 1.971153846154e-01
          4.800000000000e-03 4.945000000000e-02 2.427884615385e-01
          -1.000000000000e-04 4.990000000000e-02 2.403846153846e-01
          4.800000000000e-03 4.945000000000e-02 2.139423076923e-01
          -1.000000000000e-04 4.990000000000e-02 2.115384615385e-01
          -1.000000000000e-04 4.990000000000e-02 2.163461538462e-01
          4.800000000000e-03 4.945000000000e-02 1.706730769231e-01
          -1.000000000000e-04 4.990000000000e-02 1.682692307692e-01
          -1.000000000000e-04 4.990000000000e-02 1.730769230769e-01
          4.800000000000e-03 4.945000000000e-02 1.562500000000e-01
          -1.000000000000e-04 4.990000000000e-02 1.538461538462e-01
          -1.000000000000e-04 4.990000000000e-02 1.586538461538e-01
          4.800000000000e-03 4.945000000000e-02 7.932692307693e-02
          -1.000000000000e-04 4.990000000000e-02 7.692307692308e-02
          -1.000000000000e-04 4.990000000000e-02 8.173076923077e-02
          4.800000000000e-03 4.945000000000e-02 6.971153846154e-02
          -1.000000000000e-04 4.990000000000e-02 6.730769230769e-02
          -1.000000000000e-04 4.990000000000e-02 7.211538461539e-02
          4.800000000000e-03 4.945000000000e-02 2.331730769231e-01
          -1.000000000000e-04 4.990000000000e-02 2.307692307692e-01
          -1.000000000000e-04 4.990000000000e-02 2.355769230769e-01
          4.800000000000e-03 4.945000000000e-02 2.043269230769e-01
          -1.000000000000e-04 4.990000000000e-02 2.019230769231e-01
          -1.000000000000e-04 4.990000000000e-02 2.067307692308e-01
          4.800000000000e-03 4.945000000000e-02 6.734728205129e-03
          4.800000000000e-03 4.945000000000e-02 1.855729641026e-01
          -1.000000000000e-04 4.990000000000e-02 1.875000000000e-01
          4.800000000000e-03 4.945000000000e-02 1.173116512821e-01
          -1.000000000000e-04 4.990000000000e-02 1.153846153846e-01
          4.800000000000e-03 4.945000000000e-02 1.317347282051e-01
          -1.000000000000e-04 4.990000000000e-02 1.298076923077e-01
          4.800000000000e-03 4.945000000000e-02 1.615345025641e-01
          -1.000000000000e-04 4.990000000000e-02 1.634615384615e-01
          5.495872956716e-03 4.938609329989e-02 4.567307692308e-02
          4.104127043284e-03 4.951390670011e-02 3.605769230769e-02
          4.104127043284e-03 4.951390670011e-02 1.682692307692e-02
          4.104127043284e-03 4.951390670011e-02 5.528846153846e-02
          4.104127043284e-03 4.951390670011e-02 2.644230769231e-02
          5.495872956716e-03 4.938609329989e-02 6.490384615385e-02
          5.495872956716e-03 4.938609329989e-02 2.187500000000e-01
          4.104127043284e-03 4.951390670011e-02 1.995192307692e-01
          4.104127043284e-03 4.951390670011e-02 2.283653846154e-01
          5.495872956717e-03 4.938609329989e-02 2.379807692308e-01
          4.104127043284e-03 4.951390670011e-02 1.418269230769e-01
          5.495872956716e-03 4.938609329989e-02 1.514423076923e-01
          4.104127043284e-03 4.951390670011e-02 1.033653846154e-01
          5.495872956716e-03 4.938609329989e-02 8.413461538462e-02
          4.104127043284e-03 4.951390670011e-02 9.375000000000e-02
          4.104127043283e-03 4.951390670011e-02 2.091346153846e-01
          4.104127043283e-03 4.951390670011e-02 7.451923076923e-02
          4.104127043283e-03 4.951390670011e-02 1.754807692308e-01
          5.611851782836e-03 4.937544218321e-02 1.661037897436e-01
          3.988148217164e-03 4.952455781679e-02 1.901422512821e-01
          3.988148217164e-03 4.952455781679e-02 1.127423641026e-01
          3.988148217164e-03 4.952455781679e-02 1.271654410256e-01
          6.080581971144e-03 4.933239553326e-02 2.463942307692e-01
          -9.350499288964e-05 4.341148789675e-02 8.848129599729e-02
          -5.631719595718e-05 6.260878761228e-03 1.465216333881e-01
          -5.631719595718e-05 6.260878761228e-03 1.948245204581e-01
          -9.368427083368e-05 4.359058656285e-02 1.952849116261e-01
          -9.368427083368e-05 4.359058656285e-02 1.460612422201e-01
          -5.630401237109e-05 6.247708358718e-03 3.069330741092e-02
          -5.630401237109e-05 6.247708358718e-03 2.193066925891e-01
          -9.369598762891e-05 4.360229164128e-02 3.069330741092e-02
          -9.364467682127e-05 4.355103214445e-02 6.403081619475e-02
          -9.368474216597e-05 4.359105742380e-02 2.228363790189e-01
          -5.572265044047e-05 5.666927790034e-03 1.706730769231e-01
          -9.431340279670e-05 4.421908939390e-02 1.706730769231e-01
          -9.428228583342e-05 4.418800354759e-02 1.228035578589e-01
          -9.405572329655e-05 4.396166757326e-02 1.838089909310e-01
          -9.405572329655e-05 4.396166757326e-02 1.575371629152e-01
          -5.590431764983e-05 5.848413332178e-03 1.836470848750e-01
          -5.590431764983e-05 5.848413332177e-03 1.576990689712e-01
          -9.458145452718e-05 4.448687307265e-02 5.048076923077e-02
          -6.848136598007e-05 1.841288461409e-02 8.573072559577e-02
          -6.518297960676e-05 1.511779662715e-02 8.971130736646e-02
          -6.416555692568e-05 1.410139136876e-02 8.428800188293e-02
          -5.543128397419e-05 5.375852690213e-03 1.225347219140e-01
          -9.440662583753e-05 4.431221921169e-02 9.429944197174e-02
          -5.583962393697e-05 5.783784313030e-03 8.247784225994e-02
          -7.987987467012e-05 2.979999479545e-02 1.854425187424e-01
          -7.389217069201e-05 2.381827852132e-02 1.861897402895e-01
          -7.544736790969e-05 2.537192054178e-02 1.804491004427e-01
          -5.561193877681e-05 5.556326838031e-03 9.740380894745e-02
          -7.303998386869e-05 2.296694388482e-02 5.398117185851e-03
          -7.303998386869e-05 2.296694388482e-02 2.446018828141e-01
          -5.546488490293e-05 5.409420018024e-03 1.409240292583e-01
          -5.538750768396e-05 5.332120176279e-03 1.073729197637e-01
          -6.670138083345e-05 1.663467945262e-02 6.554165585936e-02
          -7.133334883523e-05 2.126201548639e-02 6.601514040228e-02
          -6.804655467032e-05 1.797850811565e-02 7.061115544901e-02
          -6.955118088180e-05 1.948162970092e-02 6.185979475093e-02
          -5.503913766651e-05 4.984098528844e-03 5.048076923077e-02
          -5.713652987971e-05 7.079393349831e-03 5.499258996924e-02
          -5.951455582289e-05 9.455041267065e-03 5.016184893194e-02
          -7.778549316043e-05 2.770770766727e-02 1.322811050391e-01
          -7.208653213374e-05 2.201444560161e-02 1.322095993282e-01
          -7.526530314159e-05 2.519003783845e-02 1.263614592777e-01
          -7.507419203318e-05 2.499911784115e-02 1.380416886916e-01
          -7.775418225543e-05 2.767642807317e-02 2.090595777646e-01
          -7.213203606730e-05 2.205990403123e-02 2.094750168171e-01
          -7.487537408563e-05 2.480049871154e-02 2.035831129532e-01
          -7.519929846981e-05 2.512409917135e-02 2.149599006673e-01
          -7.220025890961e-05 2.212805865070e-02 4.139486049783e-02
          -7.747009126626e-05 2.739262117499e-02 4.121884396397e-02
          -7.521937558133e-05 2.514415620575e-02 4.556762878245e-02
          -7.405204916337e-05 2.397799711420e-02 3.634315131232e-02
          -7.772699483288e-05 2.764926783805e-02 1.035897569468e-01
          -7.261223541181e-05 2.253962317640e-02 1.034756520777e-01
          -7.561017713796e-05 2.553456696083e-02 9.876803901877e-02
          -7.508807015121e-05 2.501298208105e-02 1.081533593319e-01
          -5.502938571426e-05 4.974356328548e-03 1.321212981307e-01
          -5.502938571426e-05 4.974356328548e-03 2.090443750538e-01
          -9.497061428574e-05 4.487564367145e-02 2.092248557155e-01
          -9.497061428574e-05 4.487564367145e-02 1.323017787924e-01
          -7.985259822562e-05 2.977274562739e-02 1.608847074325e-01
          -7.455935051744e-05 2.448479116693e-02 1.628845205553e-01
          -7.506706007211e-05 2.499199301204e-02 1.566101507527e-01
          -8.232355367354e-05 3.224123011986e-02 5.807004350859e-02
          -8.795644178097e-05 3.786848533919e-02 5.666735731666e-02
          -8.560195558471e-05 3.551635362912e-02 6.222229795209e-02
          -7.041270285854e-05 2.034229015568e-02 1.603988593920e-01
          -6.972251859943e-05 1.965279608083e-02 1.656532553541e-01
          -9.463576638622e-05 4.454113061983e-02 2.006989989675e-01
          -6.286426453718e-05 1.280140027264e-02 2.449430523201e-01
          -6.286426453718e-05 1.280140027264e-02 5.056947679860e-03
          -8.713573546282e-05 3.704859972736e-02 2.449430523201e-01
          -8.713573546282e-05 3.704859972736e-02 5.056947679860e-03
          -5.516934351899e-05 5.114174175471e-03 2.001596398709e-01
          -9.471750520419e-05 4.462278769899e-02 2.535174433973e-02
          -5.528249479581e-05 5.227212301010e-03 2.535174433973e-02
          -5.528249479581e-05 5.227212301010e-03 2.246482556603e-01
          -5.537562625966e-05 5.320250633397e-03 7.260155684916e-02
          -6.216965787164e-05 1.210748821376e-02 7.324577592233e-02
          -5.908713355033e-05 9.028046416779e-03 6.810212255217e-02
          -5.858107485115e-05 8.522493776299e-03 7.798760464055e-02
          -7.050281279488e-05 2.043230998208e-02 1.822963201981e-01
          -8.669855197944e-05 3.661185342746e-02 1.143949874908e-01
          -9.328845239631e-05 4.319516394391e-02 1.167648855895e-01
          -8.707248338497e-05 3.698541090159e-02 1.197269645859e-01
          -8.147403909029e-05 3.139256505120e-02 1.181987552602e-01
          -9.111957562838e-05 4.102845605275e-02 1.099141486457e-01
          -8.518098200729e-05 3.509580102529e-02 1.088335235914e-01
          -8.215701012405e-05 3.207485311392e-02 1.125793992106e-01
          -7.276227796822e-05 2.268951569025e-02 2.339270824776e-01
          -7.296225339863e-05 2.288929114523e-02 2.284635599685e-01
          -7.685839954796e-05 2.678154114842e-02 2.319883410566e-01
          -7.761905099196e-05 2.754143194096e-02 2.213793260885e-02
          -8.056045029845e-05 3.047988984815e-02 2.776790803753e-02
          -7.486586188445e-05 2.479099602257e-02 2.732504465633e-02
          -7.869582835708e-05 2.861713252872e-02 1.662964306278e-02
          -7.355933729861e-05 2.348577796132e-02 1.806273406943e-02
          -8.281025181576e-05 3.272744156394e-02 2.325629714360e-02
          -7.747768516204e-05 2.740020747688e-02 1.215875072687e-01
          -7.562982732319e-05 2.555419749587e-02 1.173867738056e-01
          -8.147522708726e-05 3.139375186017e-02 1.243292134615e-01
          -6.179217697206e-05 1.173038479508e-02 5.537301173970e-02
          -6.717466233308e-05 1.710748767075e-02 5.669368481825e-02
          -6.318594804650e-05 1.312276209845e-02 5.939188748490e-02
          -8.365146220049e-05 3.356781073829e-02 6.748698332570e-02
          -8.060908824628e-05 3.052847915803e-02 6.357880360338e-02
          -7.694623275277e-05 2.686928652001e-02 5.957483833930e-02
          -7.597667215818e-05 2.590069548602e-02 6.514533706654e-02
          -9.491815989141e-05 4.482324173152e-02 1.409152948455e-01
          -5.842328957659e-05 8.364866287018e-03 1.171582297734e-01
          -6.344244939732e-05 1.337900694793e-02 1.146426903903e-01
          -6.285386951508e-05 1.279101564557e-02 1.191847308086e-01
          -5.967307806210e-05 9.613404984034e-03 1.108182254428e-01
          -6.498152600226e-05 1.491654447626e-02 1.091465535859e-01
          -6.816635360523e-05 1.809818725163e-02 1.133357192567e-01
          -7.285826555701e-05 2.278540729146e-02 3.142545071857e-02
          -6.933892895201e-05 1.926959002306e-02 2.792135060365e-02
          -6.844070262807e-05 1.837226192544e-02 3.351642497135e-02
          -7.728753183350e-05 2.721024430167e-02 2.194386895738e-01
          -8.093971666235e-05 3.085877694568e-02 2.222200061478e-01
          -7.572522316289e-05 2.564949793972e-02 2.234513665282e-01
          -8.090176304102e-05 3.082086127798e-02 2.169132909645e-01
          -8.722649010803e-05 3.713926361792e-02 8.585497405437e-02
          -8.769362118088e-05 3.760592755970e-02 9.026769746794e-02
          -9.128391087084e-05 4.119262695997e-02 8.185229644149e-02
          -9.494658344054e-05 4.485163685710e-02 2.177502722279e-01
          -7.689505068503e-05 2.681815563434e-02 7.381358340031e-02
          -8.037504392688e-05 3.029466888295e-02 7.856419746760e-02
          -7.433340102533e-05 2.425906762430e-02 7.866847383563e-02
          -7.648291454306e-05 2.640643162852e-02 8.388858999024e-02
          -8.204615395380e-05 3.196410779985e-02 8.437323118560e-02
          -8.538300804855e-05 3.529762504050e-02 9.825213879391e-02
          -8.822624707818e-05 3.813802083110e-02 1.041677158479e-01
          -8.284105306996e-05 3.275821201689e-02 1.036913717547e-01
          -9.287177894250e-05 4.277890716356e-02 1.048820716266e-01
          -9.184767458582e-05 4.175582691124e-02 9.956420741428e-02
          -8.026596897642e-05 3.018570300745e-02 9.955395064580e-02
          -7.971069752873e-05 2.963098683120e-02 9.374105063159e-02
          -8.045895690849e-05 3.037849795158e-02 2.050663158368e-01
          -8.569596738606e-05 3.561027141867e-02 2.038417455249e-01
          -8.320472609011e-05 3.312152136402e-02 2.088688918851e-01
          -8.082881313509e-05 3.074798432195e-02 2.000936604612e-01
          -6.892848032243e-05 1.885955184210e-02 2.141392163250e-01
          -6.368604611428e-05 1.362236006816e-02 2.138912627122e-01
          -6.659295459975e-05 1.652636164515e-02 2.094930848985e-01
          -7.018900608705e-05 2.011881708096e-02 2.188927446328e-01
          -6.876883916818e-05 1.870007032901e-02 1.370855926276e-01
          -6.342204559930e-05 1.335862355370e-02 1.367709071633e-01
          -6.640798540619e-05 1.634157742079e-02 1.321514681308e-01
          -6.996448982353e-05 1.989452533370e-02 1.420080184626e-01
          -7.290717353132e-05 2.283426635778e-02 1.989857539223e-01
          -6.934860120759e-05 1.927925260639e-02 1.960709193233e-01
          -7.452570782853e-05 2.445118212070e-02 1.950844697968e-01
          -6.919370781444e-05 1.912451410663e-02 2.014298364972e-01
          -6.348280708919e-05 1.341932428210e-02 1.274106170596e-01
          -6.886383262112e-05 1.879496878850e-02 1.272382803323e-01
          -7.021702009655e-05 2.014680307645e-02 1.222291263783e-01
          -8.579805913269e-05 3.571226107356e-02 8.074710422446e-02
          -8.530045274642e-05 3.521515229368e-02 7.590564846645e-02
          -6.087879029856e-05 1.081791150826e-02 1.320728026968e-01
          -5.826799048844e-05 8.209722497948e-03 1.366080471518e-01
          -5.824199272367e-05 8.183750730949e-03 1.273908403326e-01
          -5.515498966084e-05 5.099834671177e-03 5.159518545001e-03
          -9.484501033916e-05 4.475016532882e-02 5.159518545001e-03
          -9.484501033916e-05 4.475016532882e-02 2.448404814550e-01
          -5.515498966084e-05 5.099834671176e-03 2.448404814550e-01
          -8.344518250543e-05 3.336173732292e-02 8.925391515824e-02
          -7.778456004713e-05 2.770677548709e-02 1.128889682729e-01
          -8.009937611312e-05 3.001927673701e-02 1.082681593594e-01
          -9.506336007887e-05 4.496829671880e-02 1.119597014459e-01
          -6.913588055590e-05 1.906674467534e-02 7.874498072987e-02
          -7.158024909489e-05 2.150866884580e-02 7.453945640669e-02
          -8.693743452988e-05 3.685049709535e-02 1.756221150757e-01
          -8.256312186111e-05 3.248055873925e-02 1.707128961065e-01
          -8.889720148562e-05 3.880830428413e-02 1.706577351935e-01
          -8.256609082056e-05 3.248352472974e-02 1.760466956265e-01
          -8.681793620085e-05 3.673111826465e-02 1.656221893423e-01
          -8.224605946049e-05 3.216381340103e-02 1.651322158030e-01
          -6.433362644295e-05 1.426929281651e-02 4.674749613711e-02
          -6.095170629056e-05 1.089075458427e-02 4.156820210745e-02
          -6.693292442799e-05 1.686599150356e-02 4.174356839542e-02
          -8.513236646472e-05 3.504723409826e-02 4.706980812288e-02
          -7.995073338716e-05 2.987078265377e-02 4.564472918028e-02
          -8.293022786994e-05 3.284729764207e-02 4.162305470098e-02
          -8.112484357143e-05 3.104371872786e-02 4.959967979524e-02
          -8.896922205068e-05 3.888025282863e-02 4.201918232362e-02
          -6.265946424871e-05 1.259680478446e-02 1.491754975175e-01
          -6.218816109567e-05 1.212597293457e-02 1.448105199366e-01
          -5.908643386380e-05 9.027347429940e-03 1.529665273154e-01
          -6.431732175213e-05 1.425300443038e-02 1.543293966245e-01
          -6.769234773591e-05 1.762465538817e-02 1.504536779483e-01
          -6.222545184745e-05 1.216322639560e-02 1.922093127623e-01
          -6.176248533797e-05 1.170072285263e-02 1.963240527703e-01
          -5.897096494957e-05 8.911993984622e-03 1.884396152138e-01
          -6.395996106879e-05 1.389600110772e-02 1.873220795606e-01
          -6.692183853347e-05 1.685491669493e-02 1.913813138689e-01
          -9.518259727201e-05 4.508741467473e-02 4.010623513721e-02
          -9.107611521202e-05 4.098503909681e-02 3.632368184435e-02
          -9.299592443877e-05 4.290292851433e-02 4.501503626357e-02
          -7.808238182744e-05 2.800429944561e-02 4.709487732656e-03
          -7.459114001660e-05 2.451654887659e-02 9.852089479050e-03
          -7.808238182744e-05 2.800429944561e-02 2.452905122673e-01
          -7.016666857052e-05 2.009650190195e-02 4.607957846355e-02
          -6.856720363663e-05 1.849863643300e-02 5.093739534716e-02
          -8.765201478115e-05 3.756436276637e-02 1.488803932383e-01
          -8.816311489411e-05 3.807495177921e-02 1.448514950662e-01
          -9.102331483104e-05 4.093229151621e-02 1.524983461129e-01
          -8.734765292084e-05 3.726030526792e-02 1.924345134359e-01
          -8.795810040387e-05 3.787014230346e-02 1.965538163570e-01
          -9.096032070935e-05 4.086936038864e-02 1.887786650886e-01
          -7.699244268989e-05 2.691545024720e-02 1.425456003910e-01
          -8.045064283231e-05 3.037019218948e-02 1.453867643491e-01
          -7.531726765736e-05 2.524195038970e-02 1.465396058354e-01
          -8.069895238886e-05 3.061825343647e-02 1.400318883701e-01
          -8.752889901120e-05 3.744137011219e-02 3.266715940997e-02
          -8.793707202311e-05 3.784913495109e-02 2.840256084141e-02
          -6.457356246744e-05 1.450898890497e-02 9.815120266185e-02
          -7.022605595994e-05 2.015582990398e-02 9.865294153198e-02
          -6.727920612279e-05 1.721192691667e-02 1.036391457627e-01
          -6.806979739674e-05 1.800172759934e-02 9.400637129991e-02
          -6.686312556074e-05 1.679626243518e-02 1.182541728445e-01
          -9.537578817597e-05 4.528041238779e-02 8.378408179046e-02
          -7.326172161898e-05 2.318845989737e-02 9.399308523086e-02
          -7.532938512807e-05 2.525405574294e-02 8.919711154732e-02
          -7.377112442987e-05 2.369735330544e-02 5.066836539560e-02
          -7.010729942549e-05 2.003719212606e-02 1.083519250147e-01
          -6.381607022695e-05 1.375225415672e-02 2.399017481237e-01
          -5.920050610297e-05 9.141305596865e-03 2.420645521762e-01
          -6.785633104967e-05 1.778847471862e-02 2.423987522945e-01
          -8.636100209072e-05 3.627464108863e-02 2.402147654168e-01
          -9.083200716375e-05 4.074117515659e-02 2.420922672753e-01
          -8.246232461269e-05 3.237986228808e-02 2.428107235027e-01
          -8.580792281968e-05 3.572211489686e-02 9.843693349842e-03
          -9.071343280058e-05 4.062271936778e-02 7.919257413929e-03
          -8.268418083051e-05 3.260149664968e-02 6.893080710803e-03
          -6.362048494438e-05 1.355686445944e-02 9.855813313021e-03
          -5.917288066367e-05 9.113707783009e-03 7.913591177300e-03
          -6.753048235049e-05 1.746295186814e-02 7.448373484907e-03
          -6.397234830052e-05 1.390837595222e-02 7.913409969353e-02
          -8.089063366141e-05 3.080974302775e-02 1.550128262896e-01
          -8.441537675397e-05 3.433096137721e-02 1.583483045467e-01
          -9.222844730751e-05 4.213621886020e-02 7.638657394836e-02
          -8.888779066475e-05 3.879890287408e-02 7.444457823841e-02
          -9.170195725548e-05 4.161025529822e-02 7.080066178754e-02
          -5.465442345652e-05 4.599769033066e-03 1.122651856505e-01
          -8.883743841254e-05 3.874860097413e-02 2.090005659670e-01
          -8.584228106356e-05 3.575643878249e-02 2.139422307290e-01
          -9.161220181723e-05 4.152058961541e-02 2.046460212596e-01
          -9.179407268123e-05 4.170227860855e-02 2.135464467450e-01
          -8.858928397225e-05 3.850069468827e-02 1.323343438903e-01
          -8.572131574526e-05 3.563559442951e-02 1.371547225374e-01
          -8.308845742778e-05 3.300536897035e-02 1.324157505779e-01
          -9.084957587009e-05 4.075872629422e-02 1.271596852258e-01
          -9.173671137128e-05 4.164497465991e-02 1.367125433493e-01
          -6.938466194214e-05 1.931527728020e-02 1.553732727682e-01
          -6.605551758446e-05 1.598946206687e-02 1.593161782276e-01
          -7.266759657853e-05 2.259492898195e-02 1.510753802396e-01
          -9.565749539982e-05 4.556183790442e-02 1.659316815242e-01
          -9.565749539982e-05 4.556183790442e-02 1.754144723220e-01
          -5.430325719446e-05 4.248953937270e-03 1.514423076923e-01
          -5.430325719446e-05 4.248953937269e-03 1.899038461538e-01
          -6.358064612672e-05 1.351706548060e-02 1.646422648010e-01
          -6.113176909325e-05 1.107063732416e-02 1.586080930825e-01
          -5.793691754073e-05 7.878980623193e-03 1.626232631301e-01
          -6.101428106612e-05 1.095326678506e-02 1.828666238435e-01
          -6.350373421724e-05 1.344023048302e-02 1.767286709438e-01
          -6.590410943640e-05 1.583820532696e-02 1.824935652356e-01
          -5.790406709576e-05 7.846163028667e-03 1.787412893614e-01
          -6.106742266429e-05 1.100635524162e-02 2.092268270758e-01
          -6.415777616245e-05 1.409361838629e-02 2.043160618986e-01
          -5.855928251452e-05 8.500723232003e-03 2.139247914209e-01
          -5.821051410791e-05 8.152303593800e-03 2.045844060577e-01
          -5.474093598053e-05 4.686195044551e-03 9.258596935193e-02
          -5.689808993424e-05 6.841191844306e-03 8.885471797354e-02
          -6.027120432395e-05 1.021093311962e-02 9.336709755258e-02
          -5.433002705276e-05 4.275697025708e-03 1.753644388939e-01
          -5.433002705276e-05 4.275697025707e-03 1.659817149523e-01
          -7.864596430024e-05 2.856731833594e-02 2.273124314449e-01
          -8.360304269452e-05 3.351943965183e-02 2.266357408378e-01
          -7.165698446515e-05 2.158532748068e-02 2.292546803661e-02
          -6.668528533888e-05 1.661860005354e-02 2.344423147789e-02
          -7.087505905697e-05 2.080418399791e-02 1.465386456069e-01
          -8.901065470874e-05 3.892164405403e-02 1.575624584489e-01
          -9.146801819120e-05 4.137655017301e-02 1.623633622570e-01
          -8.900701198786e-05 3.891800497587e-02 1.836279217609e-01
          -9.150422836461e-05 4.141272413625e-02 1.789302603039e-01
          -5.481121446956e-05 4.756403255089e-03 6.717088396088e-02
          -5.668980913470e-05 6.633119325567e-03 6.274390020399e-02
          -5.469420813437e-05 4.639513926241e-03 3.946018916142e-02
          -5.703388420432e-05 6.976850320112e-03 4.364656220119e-02
          -5.949414454681e-05 9.434650402261e-03 3.648976185312e-02
          -6.887524285257e-05 1.880636760972e-02 2.375252521011e-01
          -6.422321962201e-05 1.415899640239e-02 2.350934560551e-01
          -7.416074041249e-05 2.408657967208e-02 2.384723858677e-01
          -7.992215546579e-05 2.984223331033e-02 1.107562993389e-02
          -8.442195372236e-05 3.433753176864e-02 1.515428838651e-02
          -8.858082078531e-05 3.849223996452e-02 6.618279668859e-02
          -9.590473491229e-05 4.580883017738e-02 6.971153846154e-02
          -8.080331554127e-05 3.072251222573e-02 1.797915339912e-01
          -8.446797611941e-05 3.438350814329e-02 1.825614380237e-01
          -6.642925569273e-05 1.636282643703e-02 1.706224871562e-01
          -6.113070326077e-05 1.106957255751e-02 1.706716224347e-01
          -6.903924061510e-05 1.897020137448e-02 1.751534596683e-01
          -7.752981420487e-05 2.745228439067e-02 3.213625260325e-02
          -8.260428208338e-05 3.252167780129e-02 3.289599594362e-02
          -6.199420430074e-05 1.193221009644e-02 6.369853817755e-02
          -9.593698095710e-05 4.584104397614e-02 1.899038461538e-01
          -9.593698095710e-05 4.584104397614e-02 1.514423076923e-01
          -9.595461444619e-05 4.585865983175e-02 1.274038461538e-01
          -5.404538555380e-05 3.991340168251e-03 2.139423076923e-01
          -8.893457622178e-05 3.884564164556e-02 1.665995915352e-02
          -9.348911307019e-05 4.339562395712e-02 1.487945112303e-02
          -9.092392363227e-05 4.083299970864e-02 2.082835498947e-02
          -5.651088692981e-05 6.454376042880e-03 1.487945112303e-02
          -6.069342734289e-05 1.063273391554e-02 1.666103407865e-02
          -5.883077248110e-05 8.771941708620e-03 2.109543380227e-02
          -9.366101800339e-05 4.356735698539e-02 2.348280737539e-01
          -8.953665506411e-05 3.944711840904e-02 2.334477681082e-01
          -9.200522927084e-05 4.191322404157e-02 2.296318250474e-01
          -7.366948505892e-05 2.359581557387e-02 1.752154128157e-01
          -7.152588737414e-05 2.145436148676e-02 1.708315881837e-01
          -7.638287922261e-05 2.630649634339e-02 1.709596047357e-01
          -9.544762219723e-05 4.535217457503e-02 1.064650319236e-02
          -5.455237780277e-05 4.497825424972e-03 2.393534968076e-01
          -5.651088692981e-05 6.454376042881e-03 2.351205488770e-01
          -5.455237780277e-05 4.497825424972e-03 1.064650319236e-02
          -9.544762219723e-05 4.535217457503e-02 2.393534968076e-01
          -8.563620598328e-05 3.555056977730e-02 1.873430813338e-01
          -8.214780733571e-05 3.206565952838e-02 1.910680599566e-01
          -8.591961295994e-05 3.583369334698e-02 1.536936131788e-01
          -8.278925952673e-05 3.270647026721e-02 1.499733206783e-01
          -9.600878396680e-05 4.591277518284e-02 2.283653846154e-01
          -9.592758720123e-05 4.583165961403e-02 9.869942614791e-02
          -6.318976886672e-05 1.312657909786e-02 2.255708867193e-01
          -6.376600702696e-05 1.370224101994e-02 2.303514724374e-01
          -5.899746573953e-05 8.938468273793e-03 2.289996510044e-01
          -6.759241460712e-05 1.752482219251e-02 2.270886302493e-01
          -7.782044708771e-05 2.774262664063e-02 1.507506210939e-01
          -6.674956100955e-05 1.668281144854e-02 2.224907628243e-01
          -6.310674318837e-05 1.304363644518e-02 2.214860970276e-01
          -8.826407209750e-05 3.817580802540e-02 2.256749530037e-01
          -8.845010793908e-05 3.836165783114e-02 2.216926076143e-01
          -9.554738826056e-05 4.545184087230e-02 3.493748313297e-02
          -6.135916405600e-05 1.129780489195e-02 1.043762727621e-01
          -5.730911881419e-05 7.251809695374e-03 1.023162799310e-01
          -7.694573712050e-05 2.686879138338e-02 1.906689494867e-01
          -7.917627530460e-05 2.909709902929e-02 1.951394598604e-01
          -5.442556903826e-05 4.371143469219e-03 3.488001490725e-02
          -7.128431291366e-05 2.121302860074e-02 1.784606448566e-01
          -9.544871887171e-05 4.535327015284e-02 1.899020089339e-02
          -5.455128112829e-05 4.496729847158e-03 2.310097991066e-01
          -5.455128112829e-05 4.496729847158e-03 1.899020089339e-02
          -5.410996106033e-05 4.055851099268e-03 1.365788109253e-01
          -8.596963236935e-05 3.588366273698e-02 1.986039496858e-02
          -8.710300748813e-05 3.701590448064e-02 2.414465327520e-02
          -5.382485320626e-05 3.771028353056e-03 1.274038461538e-01
          -7.291055654996e-05 2.283764599341e-02 1.128483014564e-01
          -6.067234074905e-05 1.061166840830e-02 2.334032198177e-01
          -8.981110592319e-05 3.972129481727e-02 2.000750707923e-01
          -9.609434808746e-05 4.599825373937e-02 6.024912840535e-02
          -9.591897092907e-05 4.582305195814e-02 5.476861071476e-02
          -9.247747111050e-05 4.238499363939e-02 5.736293291938e-02
          -6.018353863577e-05 1.012335509713e-02 1.411584708582e-01
          -5.385421850980e-05 3.800364291287e-03 2.044419298603e-01
          -8.964044992143e-05 3.955080947151e-02 9.406250961618e-02
          -7.049410219767e-05 2.042360809547e-02 8.977016618201e-02
          -7.062995392359e-05 2.055932396967e-02 1.378417975514e-02
          -6.840124212162e-05 1.833284087950e-02 1.880362572518e-02
          -6.483753562550e-05 1.477269808988e-02 1.472863415176e-02
          -7.923064804878e-05 2.915141740074e-02 2.360331184964e-01
          -8.174129805753e-05 3.165955675947e-02 2.312486146073e-01
          -8.518151014195e-05 3.509632863181e-02 2.353177047453e-01
          -9.001544559646e-05 3.992543015087e-02 2.180928670467e-01
          -5.383038094661e-05 3.776550565663e-03 1.032140254199e-01
          -6.108377284521e-05 1.102268907236e-02 2.182679573959e-01
          -8.990957617440e-05 3.981966659823e-02 1.412521941243e-01
          -9.601469769268e-05 4.591868299499e-02 1.615138869618e-01
          -9.601469769268e-05 4.591868299499e-02 1.798322668844e-01
          -7.176105892175e-05 2.168929786283e-02 1.910464724945e-01
          -9.142510728442e-05 4.133368217713e-02 1.670714932870e-01
          -9.145366523833e-05 4.136221157309e-02 1.742428429007e-01
          -9.596411655320e-05 4.586815243664e-02 2.049164237602e-01
          -6.005769633892e-05 9.997638642580e-03 1.999627583114e-01
          -9.608274074564e-05 4.598665800490e-02 1.366573301220e-01
          -5.854820353493e-05 8.489655331391e-03 1.744062713371e-01
          -5.856981018295e-05 8.511240372766e-03 1.669466235313e-01
          -9.606179793972e-05 4.596573614178e-02 2.134983862772e-01
          -6.060978825480e-05 1.054917846654e-02 1.227841158913e-01
          -5.411341817378e-05 4.059304755607e-03 7.844815018443e-02
          -5.989050409590e-05 9.830613591802e-03 9.913323499600e-02
          -5.397200176259e-05 3.918029760827e-03 1.797229906827e-01
          -5.397200176259e-05 3.918029760826e-03 1.616231631635e-01
          -5.408659843814e-05 4.032511839701e-03 5.923784341383e-02
          -7.135593460149e-05 2.128457866689e-02 8.251679451886e-02
          -8.403535931533e-05 3.395132395601e-02 5.270860191514e-02
          -8.890612263043e-05 3.881721650780e-02 5.128290700584e-02
          -9.626547037537e-05 4.616920490499e-02 7.956042245436e-02
          -7.121173799659e-05 2.114052625859e-02 1.174730070863e-01
          -6.832528706308e-05 1.825696177601e-02 2.320576059921e-01
          -8.714598628034e-05 3.705884029406e-02 1.611984931054e-01
          -8.726273700829e-05 3.717547427128e-02 1.799439074339e-01
          -7.824503661517e-05 2.816679157855e-02 1.663317332213e-01
          -7.134107827239e-05 2.126973719412e-02 5.439023107267e-02
          -7.468769471804e-05 2.461300702332e-02 5.535794044861e-02
          -9.648159929311e-05 4.638511769382e-02 4.567307692308e-02
          -8.054411436080e-05 3.046357024644e-02 1.287931040716e-01
          -7.112047612995e-05 2.104935565382e-02 2.234361476591e-01
          -8.250000000000e-05 3.241750000000e-02 3.394189714896e-03
          -8.250000000000e-05 3.241750000000e-02 2.466058102851e-01
          -6.750000000000e-05 1.743250000000e-02 3.394189714896e-03
          -6.750000000000e-05 1.743250000000e-02 2.466058102851e-01
          -5.387882938481e-05 3.824950555425e-03 4.643514680565e-02
          -9.085196440585e-05 4.076111244145e-02 2.590253493989e-02
          -5.923211407812e-05 9.172881964039e-03 4.567665804956e-02
          -6.432995309299e-05 1.426562313989e-02 5.190896550180e-02
          -7.540759700316e-05 2.533218940616e-02 1.394981827662e-02
          -7.575128654825e-05 2.567553526170e-02 2.351084917476e-01
          -7.853246182126e-05 2.845392935944e-02 1.754829449149e-01
          -6.937053756078e-05 1.930116702322e-02 2.057060027435e-01
          -8.008398341709e-05 3.000389943367e-02 3.694383516857e-02
          -8.379841039861e-05 3.371461198822e-02 1.957071020019e-01
          -8.661519876675e-05 3.652858356798e-02 7.123186116525e-02
          -8.051383082345e-05 3.043331699263e-02 1.359051482375e-01
          -8.060409815893e-05 3.052349406077e-02 2.126805025677e-01
          -6.924727798478e-05 1.917803070679e-02 3.805464619361e-02
          -8.982145726936e-05 3.973163581209e-02 1.254470297513e-02
          -9.015971077011e-05 4.006955105934e-02 2.375004450684e-01
          -5.989859405031e-05 9.838695456256e-03 1.248610358499e-02
          -7.867890642252e-05 2.860022751609e-02 5.359188031378e-02
          -7.406021200932e-05 2.398615179731e-02 1.673456123964e-01
          -6.358201254746e-05 1.351843053491e-02 6.836881477115e-02
          -9.069797958008e-05 4.060728160050e-02 6.113005985513e-02
          -6.642158377933e-05 1.635516219555e-02 1.457719733799e-01
          -9.660922218830e-05 4.651261296611e-02 1.081303145520e-01
          -7.386662586316e-05 2.379275923730e-02 6.985508396734e-02
          -6.745914228181e-05 1.739168313953e-02 1.625158212035e-01
          -9.006838114085e-05 3.997831275971e-02 4.712676180834e-02
          -8.870609621839e-05 3.861739012217e-02 7.789008759622e-02
          -5.958769357660e-05 9.528105883026e-03 2.230169751268e-01
          -5.908476790099e-05 9.025683133088e-03 2.716701982914e-02
          -6.258915638708e-05 1.252656723069e-02 2.458926862689e-02
          -6.250656806925e-05 1.244406150118e-02 2.905354440585e-02
          -6.879922796393e-05 1.873042873597e-02 1.867858990505e-01
          -8.192460472683e-05 3.184268012210e-02 7.261993758814e-02
          -9.194614581336e-05 4.185419966755e-02 5.408179466668e-02
          -7.937323794815e-05 2.929386471020e-02 8.805627263036e-02
          -7.885784191023e-05 2.877898406832e-02 6.876979369711e-02
          -9.100638851651e-05 4.091538212799e-02 2.460931030715e-01
          -5.899361148349e-05 8.934617872009e-03 2.460931030715e-01
          -9.100638851651e-05 4.091538212799e-02 3.906896928549e-03
          -5.899361148349e-05 8.934617872009e-03 3.906896928549e-03
          -6.453514769492e-05 1.447061254722e-02 9.382662930418e-02
          -8.555536672878e-05 3.546981136205e-02 3.713821533285e-02
          -8.450681076127e-05 3.442230395051e-02 2.669545275006e-02
          -6.574936238692e-05 1.568361302454e-02 6.150704847367e-02
          -6.491502432751e-05 1.485010930318e-02 1.989790762590e-01
          -7.389478646190e-05 2.382089167543e-02 1.210576413523e-01
          -9.040646556678e-05 4.031605910122e-02 1.221875457500e-01
          -8.651604707212e-05 3.642953102505e-02 1.240532121478e-01
          -8.524096082926e-05 3.515571986844e-02 2.192252020965e-01
          -8.497503480138e-05 3.489005976658e-02 1.423612355482e-01
          -7.773887648364e-05 2.766113760715e-02 4.900337666833e-02
          -7.824928706163e-05 2.817103777457e-02 2.410408941027e-01
          -7.065292605109e-05 2.058227312504e-02 9.566931874713e-03
          -6.052567109034e-05 1.046514541925e-02 8.213797453504e-02
          -6.692541077528e-05 1.685848536450e-02 7.530761717136e-02
          -9.631887442917e-05 4.622255555474e-02 7.369076954504e-02
          -6.359634846621e-05 1.353275211774e-02 1.989784705639e-02
          -8.673592157162e-05 3.664918565005e-02 2.302885515621e-01
          -6.468873463404e-05 1.462404589940e-02 3.744163217866e-02
          -6.330944608576e-05 1.324613663967e-02 3.319192061523e-02
          -6.046331759289e-05 1.040285427530e-02 8.683641488924e-02
          -5.914094898479e-05 9.081808035806e-03 5.927361853914e-02
          -9.633507741941e-05 4.623874234199e-02 2.323334094982e-01
          -8.475926068381e-05 3.467450142312e-02 1.462548960197e-01
          -7.100596131413e-05 2.093495535282e-02 2.407720025801e-01
          -8.185400674265e-05 3.177215273590e-02 1.935884952976e-02
          -8.404724031613e-05 3.396319307582e-02 1.622049408968e-01
          -7.385152959242e-05 2.377767806283e-02 2.200157790127e-01
          -8.516286962336e-05 3.507770675374e-02 1.282408416616e-01
          -5.984595903456e-05 9.786113075525e-03 2.374778954629e-01
          -5.312335042205e-05 3.070227071625e-03 5.528846153846e-02
          -5.312335042204e-05 3.070227071623e-03 8.894230769231e-02
          -9.642394774316e-05 4.632752379542e-02 1.025970817817e-01
          -8.437219545464e-05 3.428782325918e-02 1.788133479594e-01
          -7.333315325293e-05 2.325982009968e-02 6.228516930287e-02
          -7.226359433054e-05 2.219133073621e-02 5.839506666367e-02
          -7.649225118267e-05 2.641575893149e-02 1.985600336591e-01
          -9.617716135899e-05 4.608098419763e-02 1.193913714967e-01
          -6.733468545785e-05 1.726735077239e-02 8.209989318868e-02
          -6.535684149947e-05 1.529148465797e-02 2.699051502169e-02
          -8.526533041699e-05 3.518006508657e-02 2.230794206729e-01
          -7.246573406399e-05 2.239326832993e-02 8.617202522455e-02
          -6.578678844943e-05 1.572100166099e-02 3.014642953458e-02
          -8.411823395495e-05 3.403411572099e-02 1.216807863169e-01
          -8.512745707451e-05 3.504232961743e-02 9.315691352901e-02
          -8.554770836802e-05 3.546216065965e-02 1.992503975707e-01
          -6.547947664372e-05 1.541399716708e-02 1.228586187594e-01
          -8.455674499772e-05 3.447218825272e-02 2.976539479312e-02
          -6.507861370989e-05 1.501353509618e-02 1.950235002399e-01
          -6.520129316698e-05 1.513609187381e-02 1.412995303150e-01
          -6.560942011934e-05 1.554381069923e-02 2.182087941974e-01
          -5.300263322335e-05 2.949630590125e-03 1.177884615385e-01
          -5.917391219359e-05 9.114738281397e-03 3.197635293821e-02
          -6.800124314569e-05 1.793324190254e-02 1.790341389345e-01
          -7.359385394070e-05 2.352026008676e-02 1.431194579455e-01
          -6.744354919821e-05 1.737610564901e-02 1.111941569606e-02
          -8.232696932703e-05 3.224464235770e-02 2.390468632680e-01
          1.961381927293e-02 2.257657113905e-02 5.620249322346e-02
          1.987059921737e-02 1.984271563698e-02 1.801749584350e-01
          1.767927687109e-02 1.789480729009e-02 1.103805860378e-01
          1.706622663567e-02 1.712959227295e-02 2.817432259943e-02
          2.061387299770e-02 2.062434694306e-02 8.037923427167e-02
          2.520810772584e-02 1.839946725672e-02 2.176266831254e-01
          1.959357648726e-02 2.249436281730e-02 1.400607030200e-01
          2.759946532110e-02 1.584753407217e-02 1.589346937857e-02
          1.791774973159e-02 1.806888316506e-02 1.603198542610e-01
          1.585853592702e-02 2.431448632521e-02 2.342245657598e-01
          1.849277911143e-02 2.488862253768e-02 2.008342263063e-01
          1.402851319390e-02 3.274449940739e-02 2.825832171025e-02
          3.244342695049e-02 1.438685901488e-02 9.766626673119e-02
          3.530395442982e-02 1.253419435741e-02 2.830655690662e-02
          3.109231018114e-02 1.494175146558e-02 1.697867439116e-01
          1.224364931564e-02 3.524050952781e-02 1.806646082974e-01
          1.322209275860e-02 3.392541592940e-02 1.241995159436e-01
          1.318116629673e-02 1.320150013642e-02 1.940216811272e-01
          1.453269527874e-02 1.614603442506e-02 9.597434819524e-02
          3.063801559383e-02 1.400830533428e-02 7.280645160452e-02
          1.392382189882e-02 3.151540955667e-02 1.627083551118e-01
          2.407971290537e-02 1.342505149908e-02 2.328177168827e-01
          3.288626421360e-02 1.408823274645e-02 1.425424219531e-01
          3.518070992477e-02 1.254470837453e-02 1.971189572796e-01
          1.357332142375e-02 3.332856551475e-02 2.211640158765e-01
          1.258952286405e-02 1.333037798147e-02 6.176366715469e-02
          3.142369719887e-02 1.434976333802e-02 5.388484204116e-02
          1.265780091911e-02 2.961660272183e-02 4.787530057899e-02
          1.942787438814e-02 1.487686679857e-02 1.251340697147e-01
          1.344243353146e-02 1.445920740945e-02 2.235008649532e-01
          1.251656460193e-02 1.231985158995e-02 1.700916026012e-01
          1.505499239068e-02 3.070382242579e-02 9.082594199625e-02
          2.861927242575e-02 2.495826177655e-02 2.385565333806e-01
          1.252174479058e-02 3.500808314732e-02 1.488047878410e-01
          2.561842589480e-02 2.809421851384e-02 1.153620271441e-02
          1.205397188246e-02 3.563362398289e-02 1.969692327166e-01
          3.631081228044e-02 1.160440384546e-02 2.211963896875e-01
          1.162646051815e-02 1.963355942377e-02 1.167039188949e-02
          1.483811548794e-02 1.184251396986e-02 7.360122263640e-02
          1.168743474760e-02 1.173141542627e-02 2.356454091642e-01
          1.069820598213e-02 3.739388554190e-02 7.609752754561e-02
          1.131380908718e-02 1.144144243051e-02 1.347778130203e-01
          2.074456182314e-02 3.435340979441e-02 2.403436224309e-01
          9.307045269781e-03 9.322644380739e-03 4.332198190819e-02
          3.164951103845e-02 1.489829754561e-02 1.160815084223e-01
          1.435337210650e-02 3.246209203697e-02 1.081730769231e-01
          1.236240801476e-02 3.253430077189e-02 1.263887259452e-02
          9.778196612183e-03 1.983261313187e-02 1.801749584350e-01
          1.897033039146e-02 8.868134147479e-03 1.084422131352e-01
          2.568069245823e-02 2.367512001017e-02 3.869431025641e-02
          1.030773703720e-02 2.547370451801e-02 1.442847528833e-01
          2.030607146042e-02 1.041238402832e-02 1.049705827006e-02
          1.502048753902e-02 1.095599939364e-02 8.484084503805e-02
          3.747122191414e-02 1.061003198161e-02 1.241600643524e-01
          3.520523804065e-02 1.407613462372e-02 2.379807692308e-01
          9.645102759625e-03 2.256659244384e-02 5.620249322346e-02
          2.189976119825e-02 2.938001160051e-02 6.756428877295e-02
          1.137789188122e-02 2.338168984017e-02 1.186001975432e-01
          1.747256458131e-02 8.412399192147e-03 2.815192842642e-02
          2.496271930835e-02 2.715222942850e-02 1.539080995113e-01
          3.329878472310e-02 1.480090540372e-02 1.562500000000e-01
          2.469210224560e-02 2.730678875001e-02 1.252565964653e-01
          1.807551858182e-02 1.184092185602e-02 2.052045330021e-01
          3.013377482653e-02 2.113266120327e-02 2.057272954221e-01
          3.295015922565e-02 1.467154631006e-02 1.835621388930e-01
          1.037915252259e-02 2.270577391009e-02 2.170203150583e-01
          1.050666792816e-02 2.370069358462e-02 8.378291722903e-02
          2.540643694946e-02 2.611887632748e-02 9.855769230769e-02
          1.966005866333e-02 9.246367138759e-03 2.400213462160e-01
          1.256316357845e-02 1.213057992292e-02 1.494615942439e-01
          1.097551974490e-02 3.671407328241e-02 2.330594833569e-01
          8.406909280834e-03 8.473720625372e-03 2.958288860455e-02
          8.504901784482e-03 4.028860950847e-02 5.601995710603e-02
          3.968805331853e-02 9.190134769889e-03 8.442910298674e-02
          2.206916922710e-02 3.007395651818e-02 1.874380543348e-01
          2.521751287257e-02 8.984915380599e-03 2.176266831254e-01
          2.675946087212e-02 2.536279278466e-02 2.490416174012e-02
          9.395369923200e-03 2.446812428039e-02 1.973732764878e-01
          2.591888206277e-02 2.674758505575e-02 1.706730769231e-01
          1.166336723343e-02 2.205317148823e-02 3.849855577483e-02
          9.060043789517e-03 1.497346500330e-02 1.616725138274e-01
          2.152601508400e-02 3.531542717430e-02 8.630437667619e-03
          8.330836423947e-03 1.707842073926e-02 2.835564427236e-02
          3.786052100845e-02 1.033774218404e-02 1.419629699777e-02
          1.952894998713e-02 3.290376364526e-02 1.343720523735e-01
          7.782194917937e-03 2.477839750996e-02 2.330315938021e-01
          3.180808615906e-02 1.959134398315e-02 8.616259558639e-02
          3.447034378448e-02 1.449268391927e-02 4.086538461539e-02
          2.326108264283e-02 1.055043383893e-02 9.254591033283e-02
          1.061819378944e-02 2.391609732981e-02 1.699493416199e-01
          1.514432721223e-02 3.479123703402e-02 2.091346153846e-01
          1.766195766602e-02 1.135052447413e-02 5.135499918079e-02
          1.057622922462e-02 1.065548012180e-02 1.203458480484e-01
          9.162758104042e-03 1.906630011042e-02 2.409961071176e-01
          3.276020482153e-02 1.978746077931e-02 1.298676921679e-01
          1.210215897426e-02 1.091578403226e-02 1.866377328162e-02
          2.625836971677e-02 2.719868779839e-02 1.129807692308e-01
          3.948132109497e-02 9.187770579948e-03 1.023796227885e-01
          8.782715956115e-03 3.067876018506e-02 2.409877968070e-01
          8.403767990931e-03 4.024260882796e-02 4.439994582961e-02
          2.291127465440e-02 1.008464612943e-02 1.650310419915e-01
          7.156247728167e-03 3.581452396159e-02 2.820832428625e-02
          3.656497083240e-02 8.290912006146e-03 1.701840964740e-01
          9.466416331848e-03 1.001505580870e-02 1.019110955192e-01
          7.467031500357e-03 3.605363322046e-02 1.633474513422e-01
          2.451484344627e-02 2.944010801816e-02 2.211566542699e-01
          2.249571699574e-02 3.153798196048e-02 8.241552848299e-02
          8.919603934605e-03 3.748195801642e-02 9.273164713490e-02
          3.244229915404e-02 2.073876757205e-02 2.283653846154e-01
          2.397157929698e-02 3.023318102417e-02 4.777519888443e-02
          1.113555658467e-02 2.311545943942e-02 6.755493306366e-02
          3.059503580451e-02 2.258139515154e-02 6.273277179487e-02
          2.035628262089e-02 1.167647874459e-02 3.931822590335e-02
          2.481377540877e-02 1.032915392692e-02 1.971612591116e-01
          2.760758016584e-02 7.724574480620e-03 1.589346937857e-02
          4.027702852857e-02 7.417698669346e-03 1.936646200317e-01
          3.943350580122e-02 9.355777046129e-03 5.211533254617e-02
          1.118489991809e-02 9.957392970250e-03 2.144400712949e-01
          9.184394192815e-03 3.272172624361e-02 1.378705246428e-01
          3.058516503983e-02 1.048460497935e-02 2.078905168937e-01
          1.796874355048e-02 3.392163234633e-02 5.771984387120e-02
          3.019612658399e-02 2.499529819739e-02 1.826202166298e-01
          3.142877147379e-02 1.266898940970e-02 8.553090082547e-03
          2.989063784483e-02 2.516360329902e-02 7.705164827265e-02
          8.886519773716e-03 8.654262771871e-03 5.276986746590e-02
          1.902558418652e-02 3.375140905798e-02 3.829488395626e-02
          3.944464316956e-02 9.153854145222e-03 2.306916274918e-01
          3.062060405760e-02 7.202899375621e-03 9.585551069209e-02
          7.358058726110e-03 3.424557447046e-02 1.187830324263e-01
          7.540715915332e-03 1.634077969398e-02 9.201098868474e-02
          3.014393148387e-02 7.114219188786e-03 6.997967363588e-02
          3.439858955614e-02 7.461015955411e-03 1.382183161033e-01
          2.245199148518e-02 1.099855857820e-02 1.390495535011e-01
          3.233370041011e-02 2.262637713307e-02 1.947115384615e-01
          7.373057111465e-03 3.732465090718e-02 2.236393729225e-01
          2.096660715755e-02 8.988662312495e-03 6.260258455264e-02
          1.752090687063e-02 8.679860863916e-03 2.289911158525e-01
          9.683364589070e-03 7.215324060894e-03 1.648250810703e-01
          2.426751987870e-02 1.990843731355e-02 8.357030616296e-03
          1.018064046687e-02 2.777896967635e-02 9.970211508093e-02
          2.986264310410e-02 2.472506351784e-02 1.441610918590e-01
          1.008650253099e-02 1.805555239896e-02 2.076959846552e-01
          8.788084107721e-03 1.755124316995e-02 7.729627094402e-02
          2.823479782396e-02 9.591441717040e-03 2.417268815608e-01
          8.927003271571e-03 8.074788210514e-03 9.362977402929e-02
          3.195736967414e-02 2.360563785433e-02 4.813886874208e-02
          3.733975337930e-02 1.152076780503e-02 6.258804157177e-02
          9.735209918626e-03 9.368201735578e-03 1.837260457285e-01
          3.964447823848e-02 8.918100200190e-03 7.313657564810e-02
          3.407149950599e-02 2.041447867022e-02 1.059926425641e-01
          3.319892727774e-02 6.234894103900e-03 2.821340220803e-02
          6.243728613839e-03 3.634277530042e-02 1.778338842476e-01
          2.761613555803e-02 7.020076403255e-03 2.341832244517e-01
          2.784880872496e-02 9.129302869098e-03 1.490728775647e-01
          6.538712954651e-03 1.569651443601e-02 5.889162408279e-02
          8.130312739488e-03 4.051742532699e-02 1.438089499785e-01
          2.441295958465e-02 8.165635029333e-03 1.151838167382e-01
          2.375503305671e-02 3.237795782673e-02 1.969589952725e-01
          1.949987295061e-02 3.451165159166e-02 1.732517760958e-01
          8.951000661343e-03 3.856022972399e-02 1.935830154584e-02
          2.380236797651e-02 3.219852272713e-02 2.308311764344e-01
          2.233336099142e-02 1.081919119522e-02 1.862809911117e-01
          2.153847011039e-02 3.389399274305e-02 2.163461538462e-02
          3.372996501464e-02 2.193073706631e-02 3.125000000000e-02
          4.115683564829e-02 7.286838756950e-03 2.902185514569e-02
          8.748639189685e-03 2.717144663408e-02 1.290177232225e-01
          1.424848227626e-02 6.692386569787e-03 1.966155738193e-01
          3.910000767701e-02 9.539265260132e-03 1.487716405303e-01
          8.251701034216e-03 2.886898308070e-02 1.953637826410e-02
          2.375596113523e-02 8.858846538339e-03 8.221524708214e-02
          2.219062842487e-02 3.347384266259e-02 1.466346153846e-01
          3.254512305668e-02 2.406223420687e-02 1.590605400904e-01
          2.791142183490e-02 8.962935962433e-03 1.779594558203e-01
          2.258665711746e-02 1.791940364393e-02 2.413768922375e-01
          9.902516744920e-03 3.562028117813e-02 6.524999895198e-02
          1.872968669455e-02 7.945295779941e-03 1.321386476036e-01
          8.267229985648e-03 8.274318664185e-03 8.077681067133e-03
          7.538274810836e-03 7.487573121819e-03 2.265709894713e-01
          3.444639660071e-02 2.137907530436e-02 2.187500000000e-01
          3.397300096095e-02 2.206073303759e-02 1.201923076923e-02
          6.709355979839e-03 1.386769683009e-02 1.969570434305e-01
          7.975636613710e-03 3.282620384378e-02 2.146461359424e-01
          6.465312754439e-03 2.903965253089e-02 5.111293790674e-02
          3.134808260276e-02 2.728969334928e-02 6.837669621965e-03
          8.040477323510e-03 8.444568132890e-03 2.421253985730e-01
          7.980258030946e-03 1.212459017592e-02 1.424405952847e-01
          3.261621045810e-02 2.359159943432e-02 1.208281789712e-01
          2.049782400351e-02 3.475358172392e-02 1.156647317237e-01
          2.928884101522e-02 2.774284828181e-02 2.128347965717e-01
          2.893136700873e-02 2.841124313957e-02 8.894230769231e-02
          2.695915810376e-02 3.023711860865e-02 5.797478064572e-02
          1.546785224210e-02 8.065222743705e-03 1.426988034152e-01
          1.524448799577e-02 5.958925776205e-03 1.679214455749e-01
          3.036938761691e-02 9.908027235046e-03 1.070232671800e-01
          1.597738473775e-02 5.308210725543e-03 5.598486802910e-03
          3.296548929783e-03 4.602176331197e-02 1.247423411579e-01
          4.821780226591e-03 4.832393725388e-03 2.115625155696e-01
          4.226460455960e-02 6.972782854408e-03 1.606989781694e-01
          4.412878804852e-02 5.390263677093e-03 8.192550626379e-02
          5.261458779061e-03 4.411309200896e-02 1.732654423133e-01
          4.494191472554e-02 4.457451865598e-03 2.066709527775e-01
          3.046027030112e-02 3.051122191633e-02 2.427884615385e-01
          7.903953303235e-03 2.804569178104e-02 1.800428967195e-01
          3.864085090870e-02 1.562304782250e-02 1.899038461538e-01
          7.494054698891e-03 4.185327837967e-02 2.377760410657e-01
          8.420909183562e-03 3.034673537692e-02 3.994420417310e-02
          9.898777762176e-03 2.233136266361e-02 1.542669123000e-01
          2.035245647314e-02 3.593813437800e-02 2.161604440642e-01
          4.033432352076e-02 8.693245154265e-03 9.345800559095e-02
          5.016246224087e-03 3.198613466966e-02 2.447124089341e-01
          6.801878155380e-03 4.281900964301e-02 2.650111359435e-02
          7.621091021386e-03 2.762158980810e-02 2.782342516775e-02
          3.102619061514e-02 6.618263527268e-03 1.969277182537e-01
          4.302754634631e-02 6.558689503540e-03 4.702595769769e-02
          6.942585040134e-03 1.619055261287e-02 2.152280293737e-01
          5.793622214052e-03 2.910465523672e-02 1.417776838925e-01
          2.753039697213e-02 3.135683449474e-02 1.776399011584e-01
          5.479935977551e-03 9.401020948185e-03 4.791412548861e-02
          4.320801287420e-02 5.690346001732e-03 2.264900350187e-01
          4.058822490608e-02 9.059178909880e-03 1.322115384615e-01
          6.447652926464e-03 3.307855282821e-02 2.291367259745e-01
          3.596190686635e-02 2.131144160290e-02 1.394039195966e-01
          7.525780767769e-03 1.631080342457e-02 1.869637236237e-01
          6.258513936616e-03 5.990965134213e-03 1.792430232535e-01
          3.125017919321e-02 6.298600267800e-03 2.158670221948e-02
          1.988191189067e-02 8.456991369168e-03 1.533008701243e-01
          5.703193073066e-03 2.151198693106e-02 6.086912998086e-02
          1.709150674522e-02 7.319377736841e-03 1.176930193078e-01
          3.057229323589e-02 2.876692454021e-02 1.999967973496e-01
          1.401422440719e-02 3.903957855663e-02 1.682396832342e-01
          3.076890506863e-02 2.926891977937e-02 2.324989712402e-01
          5.799223698293e-03 2.865713683124e-02 1.344084480181e-01
          3.777718028586e-02 1.786764520542e-02 1.482983550170e-01
          4.226305429572e-02 7.178827657493e-03 1.425189055122e-01
          5.358951012874e-03 3.393607949266e-02 1.876752811557e-02
          1.882467531617e-02 8.587979899781e-03 1.781894358745e-01
          4.790802808452e-03 8.085763641513e-03 4.539327216337e-03
          6.535950414533e-03 9.525126994430e-03 1.470997274868e-02
          6.993862082416e-03 6.631949604234e-03 1.964990427332e-01
          3.517956865937e-02 2.531478269142e-02 8.836250787991e-02
          3.645226256075e-02 8.279428927999e-03 1.130550053185e-01
          4.358731388340e-02 5.413347420949e-03 8.792674439520e-02
          4.091362896033e-02 8.902055835279e-03 1.854386405886e-01
          1.290483465881e-02 3.929647779239e-02 2.155961512949e-01
          5.492060517378e-03 3.853688187344e-02 2.314402674838e-01
          8.025664545821e-03 2.465684352798e-02 1.889025306951e-01
          2.770785392484e-02 3.207104345910e-02 2.064979974359e-01
          4.095895960302e-02 1.438324196607e-02 1.534527766865e-01
          1.051570016870e-02 6.853520791869e-03 2.030242058833e-01
          3.348474926278e-02 5.231492490315e-03 1.089217631644e-01
          5.596640340135e-03 4.352317766027e-02 2.277495167491e-01
        </DataArray>
      </Points>
      <Cells>
        <DataArray type="Int64" Name="connectivity" format="ascii">
          1845 2180 1843 2302 
          845 2230 623 2311 
          1384 1457 1367 2171 
          1509 1510 1458 2397 
          509 761 703 2303 
          1323 1171 1267 2317 
          2065 2010 1956 2391 
          1582 1945 1583 1636 
          1299 1268 1267 2317 
          1232 1102 1160 2210 
          896 967 1026 2295 
          1245 1243 1244 2272 
          817 565 750 2263 
          2216 2332 2153 2338 
          280 278 279 1695 
          779 411 808 2183 
          1258 1259 1260 2393 
          869 868 949 2273 
          596 590 515 2316 
          382 682 724 2261 
          616 788 617 2365 
          1235 14 108 2189 
          2174 2226 2202 2329 
          1116 2310 2223 2326 
          2211 2280 2268 2308 
          953 952 954 2220 
          1626 1585 1965 2351 
          1988 1951 1950 2306 
          847 869 1028 2273 
          2164 2327 2313 2395 
          1299 2206 1300 2317 
          589 720 514 2316 
          721 2387 2244 2396 
          2203 2257 2147 2282 
          2161 2247 390 2319 
          298 812 811 2374 
          212 213 201 2383 
          1004 958 959 2266 
          1653 1924 2016 1558 
          39 52 38 2290 
          2073 2085 1765 2257 
          2070 1998 1555 2219 
          2189 2348 2179 2377 
          1712 823 273 274 
          1884 2237 1488 2390 
          1904 2023 1940 2177 
          1662 1573 1631 1971 
          1156 1155 1301 2377 
          1454 1511 1455 2351 
          380 454 453 2297 
          1161 1162 1160 2393 
          910 845 624 653 
          580 740 581 2185 
          1873 199 1838 2046 
          1864 1694 1995 2204 
          334 2244 891 2355 
          1314 2203 1313 2253 
          1616 1896 1635 1591 
          1539 1585 1803 1586 
          1902 2227 1900 2284 
          1928 2190 1818 2364 
          1317 14 12 1235 
          342 721 356 2396 
          1954 2078 1714 2218 
          2159 2274 2244 2340 
          27 2189 28 2245 
          786 561 770 2338 
          1151 1153 1229 2377 
          2268 2280 2211 2350 
          1511 2189 6 2351 
          1549 1450 1617 2246 
          2221 2268 1165 2280 
          832 1011 833 2263 
          1922 1896 2018 1635 
          981 1016 989 2350 
          621 2242 733 2384 
          1036 2230 1116 2326 
          366 885 482 481 
          1884 2328 2237 2390 
          2300 2338 499 2372 
          498 532 312 2372 
          1958 2236 2056 2349 
          1272 1432 1306 2231 
          664 663 620 2242 
          1864 2149 1694 2204 
          123 189 217 2228 
          2153 2197 2188 2332 
          1656 1901 1902 2284 
          1262 1386 1263 2304 
          2029 743 795 2370 
          832 833 831 2263 
          2175 2279 2188 2322 
          998 2244 2159 2355 
          2006 2184 1735 2315 
          1698 1474 1513 1613 
          1986 237 611 239 
          890 528 888 2366 
          1284 1283 1435 2178 
          763 2249 391 2319 
          1323 1269 1271 2317 
          1801 214 204 2089 
          17 15 19 2240 
          1814 2123 1937 2298 
          2195 2235 2159 2340 
          648 563 762 2282 
          1817 1678 2052 2364 
          1209 1233 1091 2268 
          285 650 358 2277 
          648 793 284 2282 
          1576 1578 1577 2342 
          1296 121 123 1236 
          2155 2300 2207 2372 
          8 1511 6 55 
          1948 608 235 323 
          1979 2391 2281 2397 
          2180 2302 2265 2362 
          492 912 832 2293 
          2154 2198 2184 2285 
          1406 1280 1306 2231 
          718 285 579 2277 
          1932 2008 2101 2245 
          1955 1626 1604 1965 
          385 816 414 2278 
          1446 1445 1520 2306 
          2106 2007 2006 2384 
          677 678 679 2299 
          536 2266 2183 2347 
          521 791 288 2341 
          1728 2037 1729 2232 
          827 2261 2230 2269 
          1323 2287 1171 2317 
          1117 2258 2173 2293 
          86 100 52 2290 
          2209 2288 2164 2327 
          2103 2199 1719 2289 
          2019 1897 1924 2346 
          1360 1359 1361 2376 
          1318 1243 1143 2196 
          1389 2167 1427 2376 
          1129 1104 1103 2270 
          2181 2228 1296 2330 
          183 2269 161 2285 
          167 517 830 842 
          361 362 359 2250 
          1795 1794 2136 2204 
          617 788 638 2365 
          2156 2186 2176 2283 
          1887 2328 1884 2390 
          1910 2002 1712 2395 
          1206 1192 1334 2206 
          1567 1649 1623 2397 
          289 697 561 2332 
          2180 2206 2167 2353 
          1442 2306 1531 2357 
          1413 2182 1434 2237 
          1469 1393 1505 2180 
          92 469 1804 2331 
          864 246 721 741 
          1199 1200 1201 2270 
          2185 2199 719 2316 
          459 502 757 2311 
          1270 1173 1323 2287 
          1528 1496 1396 2254 
          2153 2206 2197 2353 
          1042 196 143 216 
          836 911 834 2360 
          108 81 80 2189 
          1531 2306 2158 2357 
          989 1016 988 2350 
          1622 1486 1485 2321 
          1364 2180 1405 2302 
          1522 1367 1457 2390 
          2173 2259 2238 2292 
          287 78 100 20 
          2227 2284 2216 2372 
          687 387 386 2279 
          606 796 858 914 
          1044 1113 1037 2326 
          2070 1935 1704 2321 
          47 51 28 2320 
          205 1135 121 1296 
          994 2207 996 2394 
          2152 2212 2176 2252 
          159 206 182 2330 
          1139 2258 1217 2337 
          986 1015 985 2366 
          48 2179 49 2320 
          2066 2323 1874 2384 
          2085 1746 1744 2257 
          237 1645 1986 2218 
          608 323 1948 2343 
          504 870 222 224 
          803 433 901 2314 
          1771 2192 1772 2286 
          298 773 705 2195 
          1090 2280 1091 2350 
          143 2326 141 2330 
          1649 1764 1623 2281 
          602 604 593 2291 
          1976 2197 2180 2353 
          299 647 1827 2216 
          222 923 870 504 
          682 573 724 2261 
          1728 1930 2037 2232 
          2044 2312 2118 2378 
          1765 2257 2213 2289 
          596 548 591 2295 
          804 292 665 2322 
          477 2339 441 2382 
          1663 593 2110 1912 
          2080 2218 2079 2229 
          1826 2139 2071 2332 
          1350 1351 1403 2228 
          2080 2078 2079 2218 
          240 241 242 897 
          844 1012 932 2311 
          432 431 765 2314 
          2194 2236 1958 2349 
          783 2230 681 2371 
          2187 2257 2082 2321 
          1923 1966 1938 2298 
          727 316 457 2234 
          683 1641 291 1898 
          243 638 917 2365 
          276 870 222 2380 
          1537 2217 1454 2351 
          1283 1282 1331 2214 
          240 347 752 2311 
          405 1656 299 539 
          1282 1179 1198 2336 
          1384 2171 1383 2217 
          1532 1508 1507 2162 
          1763 2035 1596 1880 
          1915 807 406 2284 
          924 258 884 2249 
          2137 2092 1854 2248 
          647 1898 299 1827 
          1149 1150 1148 2330 
          1103 2166 1129 2270 
          1367 1366 1365 2354 
          494 2173 737 2293 
          462 776 824 2218 
          257 2027 542 255 
          1666 1720 1987 2194 
          448 304 396 2209 
          1188 2225 1219 2363 
          1778 1777 1780 2182 
          1532 2162 1409 2182 
          2156 2186 2168 2320 
          2150 2315 2229 2358 
          191 142 158 2330 
          2220 2233 2166 2316 
          1590 1634 1592 2346 
          49 50 97 2348 
          2303 2340 2191 2387 
          525 63 58 333 
          1941 2194 2177 2236 
          1404 2180 1405 2317 
          2204 2243 2192 2334 
          1397 1478 1528 2192 
          576 2215 790 2290 
          1470 2180 1506 2302 
          856 1017 857 2262 
          2287 2318 2207 2379 
          1323 1173 1171 2287 
          1102 1101 1073 2210 
          2169 2287 2207 2379 
          949 1028 869 2273 
          446 2170 669 2359 
          790 2215 287 2290 
          1308 2192 1410 2214 
          1886 1488 1489 1605 
          1925 269 267 684 
          304 2209 448 2222 
          1510 2351 1602 2397 
          945 1042 143 2326 
          2221 2280 2157 2308 
          1924 1923 2039 2298 
          346 651 1989 652 
          2156 2240 28 2245 
          1408 1265 1310 2221 
          987 2169 985 2380 
          1935 2060 1743 2321 
          1857 2149 1864 2250 
          2080 2109 2142 2218 
          1389 1293 1292 2167 
          2205 2259 2229 2218 
          1778 1779 1777 2237 
          1715 1646 2077 2324 
          1303 1179 1282 2336 
          2006 2005 1735 2184 
          1668 185 208 132 
          2088 114 1802 144 
          492 2263 491 2293 
          1297 2243 1333 2334 
          373 375 465 2359 
          930 120 196 119 
          1577 2127 1576 2342 
          952 1022 875 2220 
          854 2170 961 2262 
          2175 2204 2149 2239 
          208 193 185 1838 
          1764 1589 1623 1587 
          692 907 424 328 
          1460 1525 1370 2390 
          2163 2312 2265 2378 
          1381 1380 1382 2321 
          14 2189 1317 2348 
          2013 1978 2077 2324 
          1738 2036 1995 2204 
          2168 2215 2186 2283 
          971 1123 999 2296 
          1318 2196 1237 2272 
          357 2274 2244 2355 
          2146 1870 2101 2356 
          1922 1495 1615 2251 
          39 85 52 2290 
          192 136 170 2193 
          618 617 782 2273 
          2066 1952 1964 2384 
          1555 1648 1486 1622 
          382 2261 381 2371 
          1739 2275 2163 2312 
          2171 2354 2237 2390 
          724 383 382 2261 
          167 517 842 2230 
          1078 998 999 2159 
          439 2370 2294 2382 
          1376 1374 1424 2334 
          234 1715 345 2324 
          2069 2172 1944 2301 
          375 2359 2262 2389 
          1304 1377 1426 2253 
          685 225 339 2360 
          1090 1119 1092 2280 
          1753 2149 1864 2204 
          2189 2307 1252 2377 
          546 2293 2277 2295 
          1358 1356 1408 2162 
          434 433 803 2314 
          1769 2187 1761 2254 
          877 1021 976 2200 
          1083 1225 1178 2386 
          1776 2134 1770 2254 
          2168 2290 2215 2299 
          56 61 62 2356 
          924 482 366 885 
          1734 2054 1933 2315 
          861 633 434 2380 
          674 1663 2110 2199 
          528 529 530 2200 
          296 825 2274 2340 
          491 225 490 2263 
          1781 2212 1784 2361 
          258 259 260 882 
          1759 2171 1758 2367 
          1947 1578 1638 2342 
          1958 2194 1941 2236 
          1872 2064 1871 2193 
          957 955 1007 2273 
          1506 1921 1654 1845 
          1653 1558 1609 1467 
          800 2198 572 2242 
          1812 2251 1813 2298 
          725 503 363 2291 
          1846 1847 2059 2182 
          657 891 334 919 
          1691 1807 1694 2286 
          2144 2197 1682 2362 
          1958 1960 2056 2236 
          490 685 817 2263 
          1374 1425 1274 2334 
          1465 1532 1463 2182 
          655 620 619 2384 
          2011 1764 1649 2281 
          985 987 986 2368 
          1250 1350 1251 2228 
          1902 2030 1656 2284 
          1620 1555 2000 2219 
          404 406 798 2284 
          1987 2194 1958 2349 
          1834 1830 1833 2369 
          694 2274 825 2340 
          707 436 763 2319 
          1941 1904 1939 2177 
          1857 2250 2165 2286 
          303 2266 444 2359 
          135 157 159 2228 
          1352 2193 1351 2228 
          276 633 861 2380 
          937 1112 936 2173 
          996 2207 995 2394 
          696 2235 2195 2274 
          1908 1910 2021 2395 
          1029 854 853 2347 
          2130 1980 1979 2281 
          574 376 799 2283 
          1258 1315 1259 2393 
          1459 1461 1522 2390 
          940 1010 936 2234 
          1547 1657 2043 1546 
          1320 1247 1246 2309 
          1370 1366 1460 2390 
          993 1063 992 2161 
          560 559 1991 1670 
          1848 1966 1923 2162 
          491 490 750 2263 
          747 796 858 748 
          2184 2229 2150 2315 
          2147 2202 2174 2238 
          496 518 195 2269 
          1827 1828 1901 2227 
          2028 2250 1667 2291 
          1407 1406 1432 2231 
          1248 1319 1246 2309 
          1820 1821 1822 2352 
          2071 2216 1825 2332 
          1008 957 1007 2273 
          1720 2369 2194 2392 
          534 412 779 2183 
          671 851 536 2183 
          735 537 425 2322 
          1475 2163 1476 2342 
          1678 2271 1677 2364 
          946 2263 832 2293 
          2191 2241 2200 2333 
          1017 2170 962 2350 
          2006 1918 1919 2229 
          880 973 1013 2295 
          1053 2255 1221 2325 
          1776 1775 1693 2286 
          2247 2319 2161 2382 
          915 263 261 806 
          2182 2224 2157 2237 
          205 159 182 2330 
          516 2230 169 2269 
          1713 1621 1542 1553 
          885 927 481 2344 
          1870 1710 2047 2356 
          1857 1982 1855 2250 
          1958 1941 1959 2236 
          15 16 106 2331 
          1079 2214 1196 2386 
          1112 1033 936 2292 
          701 888 700 505 
          1227 1089 1082 2386 
          916 819 337 2388 
          801 787 1991 559 
          296 2195 295 2340 
          623 845 844 843 
          1923 2162 1966 2298 
          2250 2276 2165 2291 
          2174 2256 2196 2272 
          419 418 660 2260 
          1203 1325 1137 2256 
          15 1708 44 102 
          2146 2008 2010 2245 
          1070 1071 1151 2179 
          132 1876 1668 2048 
          825 344 694 2396 
          2224 2369 2327 2392 
          818 429 672 2271 
          1938 2039 1923 2298 
          252 637 1748 1883 
          983 2169 1018 2379 
          1488 1886 1487 2237 
          931 34 11 87 
          1481 1378 1379 2254 
          201 473 212 2383 
          513 514 282 2316 
          1378 2187 2178 2254 
          1409 2182 2162 2221 
          2049 45 102 25 
          2198 2269 183 2285 
          1053 1110 1154 2255 
          944 1027 945 2230 
          982 2314 1030 2394 
          2160 2230 2154 2326 
          531 440 402 2382 
          2298 2305 2236 2376 
          1641 2001 1826 2332 
          1201 1200 1285 2270 
          1891 2096 1652 2342 
          824 715 237 2218 
          1189 1226 1187 2225 
          1228 1172 1068 2368 
          1456 1454 1455 2351 
          1311 1260 1312 2393 
          706 311 310 2300 
          1315 1159 1335 2335 
          2296 2340 2244 2387 
          2202 2301 1842 2364 
          1940 1900 1939 2177 
          2160 2223 2150 2310 
          312 311 499 2300 
          2188 2239 1794 2312 
          1124 1087 969 2233 
          1516 2275 2192 2334 
          1744 1704 1743 2321 
          1256 2252 1255 2307 
          1611 1577 1612 2127 
          586 585 597 2172 
          2031 601 268 233 
          905 549 553 2295 
          451 416 413 2366 
          1065 1061 1219 2268 
          510 1983 2012 749 
          1354 1537 1385 2217 
          683 1898 291 300 
          2154 2205 2150 2242 
          2040 2236 2167 2251 
          1279 1327 1280 2208 
          1098 1205 1097 2318 
          1330 2375 1311 2393 
          526 2201 734 2273 
          1964 2323 2066 2384 
          1064 2225 1226 2318 
          1863 2067 2042 2329 
          2091 2058 1943 2352 
          562 430 762 2238 
          576 575 790 2215 
          1692 1864 1857 2286 
          1794 1793 2136 2239 
          2278 2314 759 2380 
          1795 2036 2095 2204 
          365 366 364 2344 
          1960 1959 2068 2236 
          418 2260 792 2359 
          1165 2280 1163 2375 
          1416 1415 1436 2187 
          1748 1661 351 2239 
          1444 2306 1443 2357 
          2159 2233 954 2355 
          770 538 786 2338 
          1872 165 1871 1711 
          450 305 448 2222 
          1298 1274 1297 2334 
          1137 1325 1237 2256 
          2186 2215 574 2283 
          43 20 524 2215 
          1047 2258 1139 2292 
          595 689 249 2345 
          2202 2226 2174 2238 
          1081 1124 953 2233 
          663 384 800 2242 
          2195 2239 2149 2250 
          1378 2178 1379 2254 
          1611 1576 2127 2342 
          1403 177 189 2228 
          288 711 521 2341 
          1501 1514 1499 2187 
          686 393 463 2364 
          2207 2300 2247 2372 
          378 410 708 2283 
          2148 2268 2221 2280 
          1408 1409 1358 2162 
          2198 2242 800 2261 
          1088 1234 1104 2270 
          1790 1789 1792 2224 
          1288 2225 1188 2363 
          351 2141 637 352 
          2035 1596 1598 1860 
          2167 2180 1423 2317 
          1981 1552 2357 1647 
          621 663 572 2242 
          1116 2160 1048 2310 
          31 64 63 333 
          2203 2267 1278 2337 
          449 550 551 2264 
          400 403 402 2313 
          924 366 258 2249 
          2179 2348 1151 2377 
          925 843 347 2311 
          904 988 1016 2389 
          141 2326 1043 2330 
          585 578 793 2282 
          2045 2212 1759 2232 
          2188 2197 2153 2378 
          962 961 963 2170 
          281 513 282 2274 
          2003 2134 1762 2254 
          574 575 376 2215 
          1392 1300 1423 2317 
          968 2166 975 2295 
          1073 1218 1160 2335 
          1969 2180 1976 2197 
          1243 2223 2196 2272 
          1429 2171 1367 2354 
          2157 2209 2164 2260 
          315 314 427 2259 
          2219 2267 1521 2321 
          1853 2248 1854 2357 
          1086 2241 1193 2333 
          999 2244 971 2296 
          914 605 606 796 
          314 730 428 2259 
          288 209 129 2198 
          1738 2204 1806 2275 
          307 2319 778 2382 
          2001 2139 1826 2332 
          466 465 815 2359 
          1097 1169 1100 2287 
          1288 1189 1188 2225 
          43 524 332 2215 
          1414 81 68 2189 
          1765 1810 2073 2257 
          629 473 1801 2383 
          19 54 51 2240 
          337 2355 916 2388 
          388 706 765 2300 
          1523 2162 1466 2298 
          2158 2309 2150 2315 
          298 297 773 2195 
          2267 2321 2219 2329 
          1973 1996 1974 2324 
          1640 1761 1763 2254 
          331 520 521 2341 
          61 2245 56 2351 
          1453 1981 1618 1552 
          614 651 615 2324 
          1646 2264 2013 2324 
          1377 1435 1379 2178 
          1898 647 299 683 
          1199 1234 1088 2270 
          637 354 1748 2239 
          864 722 657 741 
          892 997 893 2244 
          1483 1526 1481 2254 
          1025 2249 996 2344 
          1931 2119 1996 2186 
          1714 1645 237 2218 
          780 677 576 2299 
          1690 2226 1754 2358 
          426 386 385 2278 
          2061 2265 1852 2378 
          717 234 345 2324 
          1102 1059 1132 2210 
          2106 2242 1954 2384 
          2008 2232 2009 2367 
          1241 1240 1321 2337 
          1052 1221 1157 2325 
          157 2181 159 2228 
          1801 2089 1875 2383 
          1243 2272 1245 2309 
          2160 2310 1116 2326 
          261 669 535 2347 
          1911 592 2121 1912 
          549 929 270 2295 
          243 917 849 2365 
          1884 1779 1778 2237 
          567 566 679 2299 
          1204 1044 1148 2330 
          915 607 852 2347 
          1174 1305 1194 2208 
          705 704 812 2374 
          566 2222 410 2299 
          2184 2323 2242 2384 
          781 288 209 496 
          214 1801 204 201 
          439 2294 440 2382 
          478 743 1655 2294 
          1741 2093 2373 1675 
          1637 1722 1808 1517 
          636 730 635 2205 
          1242 1241 1338 2267 
          1298 1333 1281 2334 
          1697 1884 1462 1887 
          1955 1602 1604 1626 
          433 745 927 2344 
          2149 2214 2165 2286 
          1844 1843 2113 2302 
          2181 2223 1147 2309 
          2053 2271 1740 2364 
          1040 1114 1039 2310 
          261 2262 669 2347 
          130 711 129 210 
          1754 2226 1756 2229 
          1683 2224 1777 2237 
          1718 587 584 2185 
          2207 2344 2314 2394 
          1352 2193 1418 2309 
          1886 1487 1489 1488 
          1125 2318 1098 2379 
          1888 1513 1474 1512 
          871 2366 872 2380 
          818 2238 2190 2271 
          139 830 111 138 
          596 2220 595 2295 
          729 534 445 2266 
          2162 2349 2221 2392 
          86 85 60 2290 
          786 2332 561 2338 
          1685 1683 1684 2288 
          1255 1335 1158 2252 
          345 651 614 2324 
          438 860 858 914 
          1871 171 165 2193 
          976 977 1019 2387 
          385 414 413 2278 
          1315 2335 2252 2354 
          601 2111 2031 1926 
          454 635 317 2259 
          1436 2203 1314 2253 
          2238 2271 2202 2364 
          405 2216 299 2227 
          1879 2038 2116 2251 
          1744 1746 1745 2373 
          998 954 1024 2355 
          1098 2318 1097 2379 
          775 2218 2190 2259 
          173 712 169 200 
          1977 1978 2140 2361 
          878 976 1019 2387 
          801 278 1695 787 
          2165 2195 2149 2250 
          626 1963 651 1989 
          822 2222 448 2264 
          501 2297 502 2311 
          1804 1866 2087 2331 
          168 2230 120 2269 
          559 787 1670 2332 
          1376 1372 1535 2334 
          636 635 379 2205 
          1262 1261 1330 2304 
          984 2379 982 2394 
          1005 2170 1029 2266 
          1069 1127 950 2201 
          116 1336 177 176 
          1955 1965 2065 2351 
          525 900 467 627 
          525 30 829 58 
          305 412 729 2222 
          616 867 627 628 
          378 645 799 2283 
          1879 1699 1878 2251 
          579 2277 285 2282 
          164 1502 165 115 
          1191 1192 1190 2318 
          555 2345 570 2388 
          169 2230 167 2269 
          477 814 441 2339 
          141 143 1042 2326 
          2212 2252 2237 2354 
          536 2183 908 2347 
          82 47 49 2320 
          1876 2184 1874 2323 
          2130 2098 1980 2281 
          1726 1807 1772 2192 
          2211 2319 2249 2389 
          2154 2261 2230 2371 
          2154 2269 2198 2285 
          184 2198 198 2341 
          1070 2179 1151 2377 
          1205 1169 1097 2287 
          1761 1762 1805 2254 
          820 722 919 2244 
          1476 1576 1477 2342 
          387 2279 687 2300 
          933 1036 1001 2230 
          994 996 995 2394 
          1889 1852 2061 2265 
          776 810 716 2205 
          415 755 451 2366 
          1227 1199 1089 2270 
          529 2200 877 2387 
          1529 1391 1360 2376 
          517 172 330 167 
          209 195 161 2269 
          270 880 879 2293 
          16 2240 2186 2331 
          35 1803 1585 2351 
          182 1135 205 2330 
          2047 62 90 2356 
          40 41 103 769 
          1973 1931 1996 2186 
          1881 1882 1880 2187 
          611 1927 325 324 
          1369 1413 1434 2237 
          922 788 616 2365 
          1062 1166 1061 2268 
          1534 1505 1394 2180 
          32 70 1032 69 
          1670 289 559 2332 
          1144 1243 1320 2223 
          1665 2194 1720 2349 
          2138 1790 2094 2327 
          1697 2020 1605 1886 
          2161 2247 2207 2249 
          1546 1441 1620 2219 
          1547 1617 1546 2043 
          1010 2263 2234 2360 
          809 558 453 2297 
          1917 2107 2009 2367 
          672 429 463 2190 
          1758 2171 1759 2212 
          958 908 851 2183 
          914 605 438 258 
          190 135 217 2228 
          936 935 937 2263 
          676 580 587 2185 
          32 69 1213 2348 
          15 2049 102 2240 
          900 525 30 829 
          2288 2327 2209 2395 
          2195 2303 295 2340 
          1817 2190 1841 2364 
          2205 2242 2154 2261 
          743 2294 442 2370 
          1027 944 842 2230 
          2185 2257 2203 2282 
          735 736 538 2322 
          340 909 339 227 
          1238 1341 1239 2272 
          1641 1827 647 2216 
          1214 1145 1147 2223 
          2163 2231 1512 2265 
          1737 2275 1739 2312 
          669 2170 446 2347 
          1165 2268 1210 2280 
          2231 2265 2180 2302 
          1283 2178 1284 2336 
          1932 2232 2008 2245 
          2051 2248 1993 2357 
          2168 2283 2222 2299 
          1109 1110 1053 2255 
          1933 2193 1934 2381 
          1672 2172 2069 2301 
          861 803 633 634 
          1806 2192 1727 2275 
          1125 1093 1094 2318 
          1484 1381 1382 2321 
          687 2279 499 2300 
          2148 2294 2194 2382 
          224 923 504 870 
          2150 2309 2223 2315 
          2163 2275 1535 2334 
          881 912 492 2293 
          407 2284 408 2372 
          679 2273 567 2299 
          1725 1480 1570 1479 
          857 855 856 2262 
          161 2269 162 2285 
          1922 2038 1921 2251 
          890 2200 528 2366 
          1966 2162 1938 2298 
          2157 2335 2210 2393 
          1860 1579 1630 1580 
          488 2260 418 2359 
          1786 1787 1785 2188 
          2229 2315 1918 2358 
          520 572 571 2198 
          1101 2210 959 2325 
          2166 2277 2185 2282 
          84 2245 99 2356 
          1888 1513 1512 2163 
          690 2235 282 2316 
          1748 1883 1751 2239 
          2178 2187 1378 2253 
          1730 1729 1916 2232 
          2202 2271 2238 2301 
          1186 1321 1140 2337 
          1027 1001 945 2230 
          2156 2212 2171 2252 
          1717 2185 2069 2289 
          1628 1946 1644 2302 
          1451 1452 1453 2246 
          797 371 373 2262 
          1744 2321 2257 2373 
          2303 2387 761 2396 
          392 282 690 2235 
          769 523 469 2331 
          1845 1968 1843 2180 
          640 808 641 2183 
          1457 2171 1384 2281 
          1519 2246 1451 2272 
          1993 1992 1951 2381 
          965 1021 964 2200 
          553 2295 688 2345 
          1650 1915 2024 2284 
          1490 1523 1491 2346 
          1756 2108 2109 2229 
          1729 1730 1728 2232 
          1396 1496 1411 2254 
          1137 1202 1203 2292 
          484 747 372 2389 
          1961 1608 1544 1543 
          2159 2296 2214 2340 
          429 2190 672 2271 
          2172 2257 2185 2282 
          127 126 125 2184 
          994 887 886 2344 
          1308 1283 1331 2214 
          1698 1614 1613 1947 
          2173 2258 1045 2292 
          1629 1480 1773 1497 
          931 11 34 2201 
          2247 2339 2284 2372 
          1912 592 2121 542 
          1988 2306 1540 2357 
          2156 2217 2171 2367 
          2151 2203 2187 2253 
          671 849 851 850 
          1928 324 1927 2190 
          503 785 362 2291 
          2159 2235 2233 2274 
          80 1235 108 2189 
          963 961 1029 2170 
          837 839 897 2311 
          2190 2238 427 2259 
          1823 2033 2067 2329 
          669 446 535 2347 
          2179 2307 2189 2377 
          1708 1865 1867 2240 
          1462 1887 1884 2390 
          1593 1845 1628 1506 
          752 347 623 2311 
          963 1057 962 2170 
          1506 1593 1654 1495 
          1416 1514 1536 2187 
          1975 1729 2037 2232 
          1502 1445 1447 2193 
          571 572 383 2198 
          734 867 868 627 
          2084 2178 1862 2213 
          2157 2280 2221 2304 
          625 1804 469 2331 
          2113 2180 1969 2362 
          1785 2197 1788 2332 
          806 371 797 2262 
          1921 1879 1968 2251 
          434 276 758 2380 
          1975 2176 2045 2232 
          999 2159 998 2244 
          1126 1063 1064 2161 
          1907 2343 2264 2361 
          907 327 328 692 
          1739 2163 2118 2312 
          188 496 200 187 
          2234 2259 2173 2292 
          1878 1976 1969 2180 
          464 2234 2173 2263 
          1459 2281 1623 2390 
          1348 1442 1520 2306 
          1219 1168 1188 2363 
          1911 510 1667 230 
          870 223 222 224 
          1217 1047 1076 2258 
          683 1641 1898 647 
          1759 2212 2171 2367 
          1368 2237 1260 2393 
          1650 2024 1940 2284 
          293 508 509 2374 
          1665 2369 1720 2392 
          1821 2329 1689 2352 
          132 124 128 2184 
          478 1655 1832 2294 
          1275 2214 1307 2243 
          577 529 246 2387 
          2176 2283 2186 2324 
          823 1899 478 480 
          1785 2139 1786 2332 
          47 48 49 2320 
          381 383 800 2261 
          498 312 499 2372 
          361 503 362 2250 
          721 722 356 2244 
          980 2211 2161 2249 
          1321 1276 1278 2337 
          2174 2246 2219 2267 
          590 588 589 2316 
          2060 2187 2082 2321 
          338 694 356 2244 
          1590 1651 1592 1591 
          849 917 850 2365 
          58 1006 868 2201 
          580 578 584 2185 
          2223 2272 1243 2309 
          431 2314 369 2344 
          2111 2172 586 2271 
          1776 1862 2084 2178 
          377 677 679 2299 
          318 911 320 612 
          1796 2076 1763 2187 
          1766 1796 1769 2187 
          2161 2211 1118 2268 
          1778 2182 1886 2237 
          2315 2358 2248 2381 
          1519 1450 1452 2246 
          342 577 721 2387 
          65 2351 56 2356 
          1119 2280 1090 2350 
          314 317 730 2259 
          2007 2145 2005 2184 
          835 935 1010 2360 
          2164 2327 2224 2369 
          971 2244 970 2296 
          2061 1852 1682 2378 
          557 453 558 2371 
          510 2250 362 2291 
          1345 1531 1349 2158 
          289 1670 559 290 
          731 523 522 2331 
          1493 2167 1390 2376 
          1266 1356 1422 2305 
          225 491 492 2263 
          107 1111 34 32 
          2009 1916 1917 2367 
          968 2220 2166 2295 
          2118 2163 1739 2275 
          1419 2158 1349 2309 
          1547 1617 2043 1551 
          351 355 1661 695 
          1741 2301 2041 2373 
          602 503 603 2291 
          1417 1344 1244 2272 
          162 191 156 2285 
          1741 2053 1842 2301 
          1260 1368 1434 2237 
          2115 1736 1731 2381 
          2151 2213 2187 2257 
          1672 2301 2093 2373 
          1969 2197 1976 2362 
          832 831 225 2263 
          861 2314 862 2380 
          1966 2182 1967 2392 
          2167 2225 1292 2305 
          344 356 694 2396 
          974 948 1013 2293 
          206 158 142 2330 
          1475 1477 1535 2275 
          509 508 420 2303 
          1001 2230 1036 2326 
          1068 1128 1100 2368 
          1468 1491 1523 2346 
          286 284 285 2282 
          1982 1857 1752 2250 
          1494 1493 1529 2376 
          1239 1318 1237 2272 
          1956 2351 2065 2391 
          441 670 443 2370 
          2156 2217 2189 2307 
          2165 2235 725 2291 
          2189 2217 1421 2307 
          898 897 839 2311 
          2187 2213 1765 2257 
          1333 2243 2208 2334 
          777 693 395 2395 
          2241 2366 986 2368 
          1320 1146 1144 2223 
          1464 1463 1530 2182 
          2190 2226 2202 2238 
          487 2211 436 2319 
          1151 2348 1153 2377 
          1744 1743 2085 2321 
          2166 2258 2203 2270 
          1956 2010 2107 2391 
          1987 2143 1941 2194 
          1241 2267 1242 2337 
          2152 2325 2210 2335 
          1464 1707 1489 1624 
          1231 1192 1206 2318 
          1307 2214 1177 2243 
          2206 2287 1205 2318 
          968 975 1026 2295 
          187 288 131 496 
          1152 1252 1153 2348 
          2157 2224 2221 2392 
          1125 2379 1096 2394 
          1391 1493 1390 2376 
          1758 2171 1757 2328 
          16 15 17 2240 
          1701 1878 1699 2353 
          1454 1537 1354 2217 
          1908 2327 2288 2395 
          1766 1797 1796 2187 
          1263 1386 1431 2304 
          694 357 738 2274 
          1416 1382 1415 2321 
          1497 1528 1771 2254 
          2140 1978 2013 2361 
          1317 2189 1252 2348 
          1099 2368 1128 2379 
          1573 1575 1971 2122 
          2086 37 35 5 
          1389 1292 1427 2167 
          1402 1448 1343 2246 
          2041 2301 2202 2373 
          441 2339 2177 2382 
          1812 2236 2040 2251 
          636 379 810 2205 
          594 595 596 2220 
          97 2179 49 2348 
          2197 2332 2216 2353 
          1798 1793 1787 2188 
          1534 2167 1390 2251 
          129 152 210 2341 
          721 2244 356 2396 
          1857 1855 1856 2250 
          1732 2092 2137 2248 
          879 880 881 2293 
          1265 1266 1264 2363 
          2108 2218 2109 2229 
          1841 2226 2202 2364 
          2017 2327 1834 2369 
          1672 2093 1675 2373 
          596 2277 2166 2295 
          526 333 58 2201 
          1161 2335 1315 2393 
          1471 1627 1473 2302 
          1829 1895 1893 2353 
          1459 1567 1623 2397 
          763 435 438 2389 
          868 1006 949 2201 
          1553 1647 1621 1552 
          451 422 416 2200 
          1972 2176 1975 2324 
          327 907 328 928 
          2103 1877 1660 2289 
          148 143 147 2269 
          959 2210 1005 2266 
          1375 1376 1516 2334 
          370 2249 364 2344 
          2165 2276 1856 2286 
          672 393 231 2271 
          385 386 387 2278 
          54 99 84 2245 
          1455 1585 1626 2351 
          863 913 861 2380 
          1373 1372 1371 2163 
          1093 1125 995 2394 
          2217 2245 2189 2351 
          1386 1412 1388 2182 
          558 2297 753 2371 
          513 2220 515 2316 
          1867 1865 1930 2240 
          1708 1867 2049 2240 
          1815 1813 1812 2251 
          928 853 852 2347 
          567 2183 566 2299 
          997 2244 998 2355 
          1081 953 954 2233 
          1129 2166 1087 2270 
          1661 1994 353 695 
          1661 695 353 351 
          34 33 32 2179 
          1030 1003 984 2394 
          1204 1043 1044 2330 
          2164 2308 2294 2369 
          2182 2221 2157 2224 
          624 653 845 2230 
          2221 2349 2148 2392 
          393 672 463 2364 
          948 974 1075 2293 
          2090 1858 1855 2276 
          1758 2281 2171 2328 
          707 306 436 2319 
          1487 2182 1413 2237 
          1393 1405 1404 2180 
          381 2261 2205 2371 
          1284 1303 1282 2336 
          1613 1614 1638 1947 
          1841 2202 1842 2364 
          1440 1439 1521 2219 
          378 2283 376 2299 
          536 908 907 2347 
          1593 1594 1628 1946 
          297 298 295 2195 
          497 2216 498 2372 
          627 868 734 525 
          1132 1057 963 2170 
          1014 956 960 2183 
          1777 1685 1780 2224 
          2044 2118 1890 2378 
          1686 2117 1784 2212 
          524 287 790 2215 
          527 91 60 2290 
          10 9 11 931 
          299 2216 1656 2227 
          639 922 788 628 
          1257 1335 1255 2252 
          2164 2224 2157 2392 
          1483 1763 1500 2187 
          1989 345 346 1715 
          1715 236 345 346 
          431 369 368 2344 
          813 391 764 2249 
          183 2198 161 2269 
          1920 2332 2197 2353 
          1074 1157 1218 2325 
          2151 2235 2233 2336 
          888 504 505 923 
          1446 1619 1950 2306 
          332 41 40 769 
          783 680 558 2371 
          1763 2035 1860 1596 
          710 43 524 332 
          366 481 368 2344 
          1252 2307 1326 2377 
          1277 1415 1380 2203 
          1709 153 124 2383 
          2099 1852 1889 2265 
          1431 1408 1310 2221 
          1074 1218 1073 2325 
          1111 32 1032 1071 
          594 649 570 2388 
          1329 2221 1265 2363 
          714 1671 713 2012 
          489 475 370 2207 
          491 493 492 2293 
          1684 1781 1783 2361 
          174 1872 1711 165 
          1238 2256 1401 2272 
          1217 1139 1047 2258 
          31 768 63 30 
          939 1039 943 2234 
          414 759 758 2380 
          303 2260 2209 2266 
          1985 2224 1791 2392 
          2059 1967 1846 2182 
          1339 2219 1402 2267 
          1719 1717 1877 2289 
          1712 2021 1910 2385 
          1768 1766 1769 2213 
          1406 2163 1280 2231 
          2148 2211 2161 2268 
          2083 1703 2034 2219 
          462 611 1929 2218 
          1966 2349 2162 2392 
          1728 2055 1932 2232 
          1458 1457 1509 2397 
          959 958 960 2183 
          2021 2385 2327 2395 
          1749 1750 1748 2239 
          1355 2217 2189 2351 
          799 645 662 2283 
          1809 2032 2128 2289 
          361 363 503 2250 
          198 152 129 2341 
          68 6 1337 2189 
          660 488 309 2308 
          2116 1815 1816 2251 
          2154 2223 2160 2310 
          2153 2241 2169 2279 
          597 598 231 2271 
          2151 2214 2165 2235 
          51 2156 28 2320 
          987 2368 2169 2379 
          497 697 646 2216 
          2153 2216 2197 2332 
          1172 1174 1222 2241 
          1082 1178 1227 2386 
          1839 1933 193 1838 
          280 801 1695 1991 
          310 2300 312 2372 
          2232 2240 2156 2245 
          678 2201 526 2273 
          1466 2162 1467 2298 
          1267 2287 1170 2317 
          2006 2229 2184 2315 
          83 27 54 2245 
          638 846 244 917 
          160 163 128 2184 
          1714 349 1954 2218 
          654 910 653 843 
          1736 2315 1731 2381 
          637 252 1748 354 
          1449 1448 1518 2246 
          1689 1821 2100 2329 
          1828 2227 2216 2353 
          1378 2187 1400 2253 
          2214 2296 2149 2340 
          516 518 169 330 
          38 2201 39 2290 
          723 576 677 2299 
          2161 2207 996 2249 
          834 318 666 2360 
          1077 1207 1184 2258 
          1402 2246 2174 2267 
          2156 2255 2252 2307 
          567 679 782 2273 
          1622 1882 1936 1648 
          1745 2202 1702 2321 
          64 60 333 709 
          1697 1884 1886 1488 
          992 2161 996 2249 
          209 288 187 496 
          2098 1760 1885 2328 
          2162 2221 2148 2305 
          2035 1633 1880 2105 
          568 819 916 2388 
          985 2169 987 2368 
          861 277 276 913 
          2231 2197 2180 2265 
          292 2322 508 2374 
          1185 2203 1276 2337 
          412 2183 534 2266 
          1430 1295 1242 2256 
          693 399 398 2385 
          458 2234 464 2263 
          2192 2275 2204 2334 
          2203 2258 1185 2270 
          1895 2197 1851 2353 
          1356 2305 1266 2363 
          227 831 909 225 
          428 775 461 2190 
          1828 1829 1893 2353 
          2248 2306 2158 2315 
          1144 1146 1216 2223 
          515 513 802 2220 
          1153 1252 1326 2377 
          1885 1779 1884 2328 
          1403 176 1236 189 
          2179 2189 48 2348 
          811 295 298 2195 
          244 243 917 245 
          1842 1863 2041 2202 
          2203 2253 2151 2270 
          35 2086 5 1803 
          2216 2227 2155 2353 
          478 2294 1832 2385 
          1215 1138 1143 2196 
          2036 1738 2095 2204 
          1421 1385 1383 2217 
          825 2340 702 2396 
          1664 1966 1967 2392 
          1683 2212 1684 2288 
          36 1639 55 35 
          1840 99 1669 2356 
          1100 1228 1068 2368 
          1656 2030 539 2284 
          767 2323 212 2383 
          1249 1296 1150 2181 
          243 641 617 2365 
          1051 957 1109 2255 
          1194 1327 1195 2208 
          530 452 755 2200 
          1244 1243 1318 2272 
          1654 1594 1595 1593 
          1615 1495 1494 2251 
          1626 1602 1456 2351 
          879 270 271 929 
          528 888 700 920 
          1809 1767 2032 2289 
          1703 2070 1704 2219 
          649 357 337 2355 
          435 374 372 2389 
          527 780 495 2290 
          690 282 514 2316 
          258 882 883 914 
          163 192 193 2193 
          902 2314 433 2344 
          88 1032 107 70 
          2172 2202 2147 2238 
          1985 1791 1984 2392 
          998 2159 954 2355 
          1292 2167 1293 2206 
          1513 1698 1613 2342 
          1166 2268 1167 2363 
          592 1911 229 228 
          526 527 60 2290 
          1445 1502 1351 2193 
          1037 1113 1036 2326 
          2018 1922 1635 2251 
          2205 2229 2150 2242 
          1120 1072 960 2325 
          1690 1687 2063 2226 
          2223 2309 2184 2315 
          1418 2228 1250 2309 
          2140 2013 1782 2361 
          491 750 494 2263 
          834 835 836 2360 
          251 905 554 553 
          60 333 526 2201 
          1111 107 88 1032 
          1712 273 823 2385 
          2190 2226 1841 2364 
          1949 1934 2064 2381 
          607 327 329 2347 
          1529 1360 1490 2376 
          1445 2193 1352 2306 
          555 894 249 2345 
          1373 1475 1372 2163 
          74 89 18 2320 
          1395 1425 1397 2192 
          1814 2298 1937 2349 
          459 757 456 2234 
          1762 1640 2003 2254 
          579 285 284 2282 
          2077 1646 2013 2324 
          1558 1560 1653 1609 
          1483 2187 1526 2254 
          1873 1871 1933 2193 
          1432 1362 1363 2231 
          2104 1717 1674 2289 
          2051 1854 1993 2248 
          1245 2272 2158 2309 
          488 487 309 2308 
          2208 2241 2175 2333 
          1483 1579 1640 2254 
          1866 1804 1962 2331 
          454 2205 635 2259 
          1678 1740 1677 2271 
          2105 1599 1601 1633 
          1795 2136 1859 2204 
          2207 2379 1125 2394 
          2131 1862 2004 2213 
          1933 1839 193 2193 
          1415 2203 2187 2321 
          2216 2227 405 2284 
          980 2161 993 2249 
          363 2195 2165 2250 
          2044 1739 2118 2312 
          1598 1630 1860 1596 
          1962 1804 625 2331 
          234 2264 1646 2324 
          1866 1962 2119 2331 
          1462 1525 1460 2390 
          1167 1168 1166 2363 
          1131 1105 977 2191 
          292 698 508 2322 
          759 2278 388 2314 
          2197 2216 2153 2353 
          270 492 546 2293 
          1950 1619 1988 2306 
          671 779 640 2183 
          2215 2283 2168 2299 
          2277 2293 2166 2295 
          1753 2204 1859 2239 
          578 2185 579 2282 
          767 212 473 2383 
          1000 841 845 2230 
          1663 2103 2110 2199 
          1863 2202 1841 2329 
          1975 2176 1973 2324 
          155 1709 2089 153 
          517 899 830 842 
          496 195 518 200 
          120 945 944 930 
          1955 1956 1957 2391 
          1523 1357 1466 2162 
          1684 1683 1686 2212 
          258 259 882 605 
          2170 2280 1119 2350 
          2281 2367 2217 2391 
          719 740 675 2185 
          2039 1938 2123 2298 
          2211 2350 2262 2389 
          211 1709 154 153 
          2294 2369 1832 2385 
          38 2179 34 2201 
          2153 2287 2231 2317 
          1219 1187 1065 2225 
          1265 2221 1356 2363 
          1213 1152 1151 2348 
          579 2185 718 2277 
          2187 2203 1436 2253 
          1216 1145 1049 2223 
          494 493 491 2293 
          2241 2279 2175 2322 
          1765 2213 1767 2289 
          240 501 502 2311 
          972 2296 970 2387 
          572 800 383 2198 
          1464 1707 1643 1997 
          2165 2214 2178 2286 
          2164 2308 2260 2313 
          2131 1658 2032 2213 
          339 666 460 2360 
          1635 2251 1492 2346 
          2148 2236 2194 2349 
          34 59 39 2201 
          1692 1694 1864 2286 
          581 719 718 2185 
          1746 2085 2073 2257 
          1188 1187 1219 2225 
          2234 2259 2160 2297 
          629 2323 473 2383 
          593 2199 2110 2291 
          1167 1329 1264 2363 
          1926 1944 1718 2172 
          1973 1975 2037 2186 
          690 691 604 2199 
          501 809 821 2297 
          665 355 278 2188 
          51 18 17 2240 
          926 484 903 2389 
          1648 1486 1622 2321 
          1696 321 322 2002 
          615 626 1963 651 
          1928 2052 2050 2364 
          907 908 928 2347 
          584 2172 1718 2185 
          676 587 1716 2185 
          2188 2312 1785 2378 
          264 2284 1650 2370 
          1533 1373 1407 2163 
          1521 2219 1340 2267 
          455 821 453 2297 
          945 2230 1001 2326 
          337 891 334 916 
          56 1437 55 2351 
          1269 1404 1433 2317 
          173 188 712 200 
          1014 851 850 2183 
          454 727 455 2297 
          1753 1749 1752 2149 
          2206 2207 2155 2300 
          2162 2298 2236 2349 
          1263 1310 1309 2221 
          214 2089 1801 2383 
          1812 1960 2040 2236 
          1970 1567 1649 1569 
          393 2271 672 2364 
          2170 2350 2262 2359 
          77 1840 90 76 
          844 623 843 2311 
          1204 178 180 1043 
          1096 2379 984 2394 
          1076 1047 1117 2258 
          1772 1691 1775 2286 
          355 2188 665 2239 
          400 2313 2294 2385 
          512 513 281 2274 
          232 231 393 2120 
          1242 1294 1240 2256 
          2106 2229 2079 2242 
          403 2308 2294 2313 
          1651 1897 2019 2346 
          1799 2188 1786 2332 
          417 792 418 2260 
          834 911 318 2360 
          341 760 728 2387 
          1092 1058 1163 2280 
          360 2195 361 2250 
          222 504 415 2366 
          1924 2298 2019 2346 
          772 477 778 2339 
          1379 1378 1377 2178 
          1108 1067 1222 2241 
          2201 2273 678 2299 
          1045 2258 1047 2292 
          1934 2193 1871 2381 
          794 736 665 2188 
          240 612 837 2311 
          1011 947 937 2263 
          1888 1890 2118 2265 
          1605 1707 1606 1624 
          1142 1143 1144 2310 
          1372 2163 1535 2334 
          1413 1530 1388 2182 
          1325 1238 1237 2256 
          159 2181 158 2330 
          374 373 372 2389 
          2102 2005 2145 2184 
          55 1437 1639 36 
          88 1111 87 107 
          2171 2212 1757 2328 
          2188 2322 2279 2338 
          1846 1848 1465 2182 
          1129 1103 975 2166 
          1937 2123 1938 2298 
          2187 2203 2151 2257 
          934 932 1012 2160 
          1790 1791 1789 2224 
          1688 1687 1690 2352 
          720 719 691 2316 
          1552 1504 1453 2357 
          380 2205 454 2297 
          1680 2312 1679 2378 
          975 968 1129 2166 
          629 2323 1964 2384 
          433 927 901 902 
          1081 2233 954 2386 
          1911 510 230 228 
          1386 1262 1412 2304 
          750 490 817 2263 
          342 2387 721 2396 
          2154 2184 2150 2223 
          293 294 292 2374 
          2210 2375 2157 2393 
          1420 1241 1278 2267 
          1181 1182 1183 2333 
          1662 1579 1631 1482 
          1127 1109 1008 2255 
          199 1873 1838 193 
          2014 2099 1889 2302 
          1020 2249 860 2389 
          28 2156 51 2240 
          2023 2177 1904 2370 
          559 560 290 1670 
          1506 2180 1534 2251 
          1005 2210 2170 2266 
          2069 2172 1672 2257 
          895 2220 967 2345 
          1521 2267 1381 2321 
          1657 2219 2034 2246 
          517 172 167 766 
          1256 1301 1302 2307 
          2207 2249 370 2344 
          777 2313 693 2395 
          2191 2296 2243 2333 
          1803 1585 1965 1586 
          1689 2226 1687 2352 
          1759 1758 1916 2367 
          2256 2267 2147 2337 
          359 1671 252 2250 
          354 705 742 2374 
          1974 2077 1972 2324 
          1242 1240 1241 2337 
          1280 1371 1281 2334 
          1475 2275 2163 2342 
          243 849 245 423 
          2214 2336 1225 2386 
          290 1641 289 1670 
          1906 2023 1904 2370 
          642 644 645 2283 
          1962 625 615 2331 
          159 2228 2181 2330 
          2168 2186 2156 2283 
          1874 2323 1875 2383 
          1288 2305 2225 2363 
          2306 2309 2158 2315 
          1245 1344 1419 2309 
          981 1121 1060 2211 
          371 903 855 484 
          2217 2245 2010 2367 
          1141 1294 1203 2256 
          397 2209 417 2260 
          921 555 873 2388 
          1653 1923 1924 2298 
          1118 2211 1060 2268 
          200 712 518 496 
          127 198 183 2198 
          989 1121 981 2350 
          2175 2241 2153 2279 
          974 1103 1075 2293 
          1695 801 787 1991 
          388 385 387 2278 
          1648 1600 1936 1622 
          1995 1753 1864 2204 
          458 817 685 2263 
          2043 1549 1835 1551 
          376 377 378 2299 
          1469 1505 1470 2302 
          1750 2026 1748 2239 
          2050 686 394 326 
          957 1051 956 2183 
          189 190 217 2228 
          212 2323 149 2383 
          565 564 750 2173 
          423 907 536 851 
          475 2207 489 2247 
          494 737 756 2293 
          1098 1096 1125 2379 
          1255 2252 1156 2307 
          1313 2253 2203 2270 
          2106 1954 1953 2384 
          2110 2199 1660 2276 
          871 872 870 2380 
          2108 2190 1929 2218 
          622 732 681 2230 
          1218 2325 1157 2335 
          1480 1771 1497 1528 
          343 2303 761 2396 
          1664 1967 1984 2392 
          98 61 6 2189 
          761 2387 341 2396 
          1484 1485 1486 2321 
          1943 2058 1942 2352 
          1843 1968 1969 2180 
          1555 1440 1486 2219 
          1759 2232 2212 2367 
          1700 2236 2227 2353 
          2175 2188 2153 2312 
          392 283 282 2235 
          1455 1511 1437 2351 
          1679 1680 1681 2312 
          1296 1249 1251 2228 
          2224 2237 1683 2288 
          983 2368 987 2379 
          60 59 58 2201 
          1041 2234 1034 2292 
          1430 1402 1401 2174 
          1704 1935 1743 2321 
          2176 2186 2156 2232 
          1289 1422 1359 2305 
          464 315 562 2173 
          1349 1442 1348 2306 
          1676 393 232 394 
          750 564 494 2173 
          615 651 1963 2324 
          442 743 401 2294 
          1713 1951 1988 2357 
          1625 1510 1602 2397 
          995 1125 1003 2394 
          1953 1952 2066 2384 
          1890 1888 1889 2265 
          1735 2005 2054 2184 
          1032 1071 32 2348 
          1291 2206 1192 2318 
          694 2340 825 2396 
          1306 1280 1327 2208 
          1872 1608 1802 1961 
          154 2048 211 134 
          2216 2284 407 2372 
          1351 1502 115 2228 
          1626 1965 1955 2351 
          1534 1506 1505 2180 
          43 2215 332 2331 
          318 911 319 320 
          1405 2180 1364 2317 
          1909 2343 1907 2361 
          2150 2223 2184 2315 
          422 2200 2175 2322 
          1122 1081 954 2386 
          1752 2239 1751 2250 
          58 829 57 30 
          525 768 467 30 
          2216 2332 2071 2353 
          451 413 415 2366 
          1962 1963 2119 2331 
          222 2366 2278 2380 
          1983 2028 1982 2250 
          981 979 1016 2389 
          822 673 643 2264 
          30 900 829 2 
          525 900 30 467 
          1946 1561 1644 1563 
          467 2 30 0 
          1978 2324 2013 2361 
          129 2198 184 2341 
          1167 1166 1233 2268 
          2294 2308 2164 2313 
          988 2350 1016 2389 
          436 2319 2211 2389 
          2157 2212 2152 2335 
          2034 2246 2219 2329 
          1204 1148 1150 2330 
          275 661 1712 2002 
          2237 2328 2171 2390 
          1722 2275 1477 2342 
          1442 1531 1443 2357 
          1209 1091 1092 2280 
          803 746 901 745 
          196 930 119 197 
          529 784 920 528 
          2181 2184 137 2285 
          417 726 303 2260 
          804 735 425 2322 
          33 49 97 2179 
          1630 1598 1860 1580 
          1774 1629 1573 2122 
          1447 2193 1445 2306 
          854 852 853 2347 
          1081 1122 1083 2386 
          1029 2266 2170 2347 
          2278 985 2380 2366 
          2150 2226 2158 2358 
          98 26 27 2189 
          966 2241 2200 2366 
          1876 124 132 2184 
          722 919 657 820 
          1144 2223 1216 2310 
          1075 1077 1076 2258 
          1694 2192 1806 2204 
          1367 2171 1457 2390 
          1370 1428 1366 2390 
          2151 2199 2165 2213 
          936 2234 2173 2292 
          1810 2257 1765 2289 
          725 283 392 2235 
          124 215 125 2323 
          1419 1247 1245 2309 
          1311 2375 1212 2393 
          364 2249 365 2344 
          562 563 564 2173 
          426 422 421 2322 
          877 2200 976 2387 
          345 1715 1989 2324 
          2233 2274 2235 2316 
          1899 479 1655 743 
          1084 1086 1085 2333 
          855 371 806 2262 
          923 889 888 2366 
          149 215 2383 2323 
          1130 2241 986 2368 
          1401 2256 2174 2272 
          2005 2102 1839 2184 
          1055 1123 1054 2296 
          208 128 163 2184 
          1033 1115 940 2234 
          419 2260 660 2313 
          1181 1183 1220 2243 
          2148 2280 2221 2308 
          2259 2205 2229 2150 
          717 643 234 2324 
          2129 2079 1919 2229 
          311 388 387 2300 
          2184 2242 2006 2384 
          288 781 209 2198 
          152 149 210 2341 
          2160 2259 2205 2297 
          2192 2204 2149 2243 
          384 381 800 2205 
          807 1915 1650 2284 
          626 625 1962 470 
          895 967 896 2345 
          902 901 433 2314 
          591 588 590 2277 
          553 894 905 2345 
          1534 1495 1506 2251 
          1181 2243 1220 2333 
          1820 2246 2034 2329 
          636 776 775 2205 
          28 48 47 2320 
          1770 1771 1772 2286 
          1886 1778 1997 2182 
          1440 1441 1439 2219 
          1071 2179 1069 2201 
          2148 2268 2225 2363 
          1736 2248 1732 2358 
          2180 2265 2197 2362 
          537 2279 386 2322 
          1058 1057 1059 2280 
          1756 2132 1755 2229 
          2209 2260 2210 2266 
          2018 2251 1635 2346 
          429 2190 818 2238 
          2153 2332 2188 2338 
          915 806 261 2262 
          2184 2309 2193 2315 
          962 1017 961 2170 
          771 379 384 2205 
          1586 1965 1626 1585 
          356 722 820 2244 
          2160 2297 2205 2371 
          473 2323 767 2383 
          1515 2187 1882 2321 
          1664 1937 1938 2349 
          1274 1275 1273 2334 
          1623 2011 1764 2390 
          1851 1849 1850 2362 
          954 2233 1122 2386 
          2191 2340 2296 2387 
          839 1009 941 2311 
          1664 1984 1665 2392 
          227 225 909 339 
          2264 2343 1909 2361 
          1592 1634 1897 2346 
          428 2190 427 2259 
          1988 1540 1713 2357 
          2157 2304 2237 2393 
          1824 2075 1820 2246 
          575 524 790 2215 
          2057 1685 1684 2288 
          1032 107 70 32 
          1671 749 713 2012 
          1955 2112 1602 2397 
          1761 2187 1763 2254 
          2151 2235 2199 2316 
          1784 2140 1781 2361 
          398 2313 400 2385 
          1999 1556 1620 1548 
          1640 1763 1860 1630 
          884 2249 1025 2344 
          351 354 637 2239 
          880 2293 270 2295 
          2195 2239 742 2374 
          948 947 946 2293 
          1684 2212 1781 2361 
          926 437 858 747 
          1461 1459 1623 2390 
          996 2249 2207 2344 
          1453 1452 1836 2246 
          653 843 348 654 
          517 167 830 139 
          1299 1300 1268 2317 
          1695 1800 1798 2188 
          691 2199 690 2316 
          1555 1556 1620 1998 
          117 115 1336 1502 
          1948 1646 608 2343 
          1378 1426 1377 2178 
          364 368 369 2344 
          2155 2284 2227 2372 
          1130 1107 966 2241 
          762 563 562 2238 
          629 1801 473 474 
          980 1020 979 2211 
          2009 2232 1730 2367 
          1474 2022 1892 1564 
          726 2209 303 2260 
          1537 1456 1510 2351 
          1963 2186 2119 2331 
          1276 2203 1278 2337 
          1771 1480 1725 2192 
          1452 1549 1618 1835 
          1477 1611 1722 2342 
          1169 1170 1171 2287 
          493 546 492 2293 
          644 614 662 2324 
          1874 2184 2145 2384 
          487 2308 2211 2319 
          2067 1745 2042 2329 
          2187 2213 2151 2253 
          160 127 156 2285 
          418 792 754 2359 
          420 508 421 2175 
          708 789 450 2222 
          538 2188 786 2338 
          1952 1990 655 2384 
          2154 2285 2181 2326 
          2169 2379 2314 2380 
          1719 544 1716 676 
          2056 2236 1812 2349 
          381 379 380 2205 
          600 648 762 2282 
          1105 2296 2191 2333 
          488 375 487 2308 
          1699 2167 1878 2251 
          151 130 210 711 
          531 660 309 2308 
          1535 2275 1516 2334 
          833 909 831 2360 
          581 718 579 2185 
          954 2220 952 2355 
          1219 2225 1065 2268 
          1019 977 972 2387 
          2239 2322 292 2374 
          1803 3 1639 1539 
          1467 1923 1508 1653 
          1609 1848 1508 1636 
          1922 1615 1635 1494 
          1115 939 940 2234 
          118 930 120 1031 
          1955 1602 1626 2351 
          734 867 627 616 
          2088 1872 144 1802 
          1574 1971 1573 1575 
          987 1128 1066 2368 
          1662 1573 1498 1631 
          1352 2306 2193 2309 
          1348 1347 1349 2309 
          591 590 596 2277 
          1068 1172 1067 2368 
          1110 2255 1070 2377 
          1330 1312 1262 2304 
          1089 2270 2233 2386 
          1059 1211 1058 2375 
          1686 1683 2062 2328 
          1680 2188 1787 2312 
          124 2323 1709 2383 
          23 15 102 2240 
          1657 1617 1837 2043 
          1542 1988 1541 1540 
          929 906 880 2295 
          1874 2145 2007 2384 
          1836 1453 1618 1452 
          1412 2237 2182 2304 
          1007 2273 955 2365 
          1927 324 611 2190 
          1485 1515 1882 2321 
          1044 1043 1042 2326 
          1234 1207 1104 2270 
          748 926 858 747 
          1830 2327 1831 2385 
          421 508 698 2322 
          228 602 593 2291 
          1633 2035 1596 1597 
          1951 2051 1993 2357 
          286 2277 756 2282 
          1676 2271 393 2364 
          158 2181 157 2285 
          1689 1688 1821 2352 
          1774 2003 1662 2254 
          2155 2284 2247 2339 
          2183 2255 1051 2325 
          2212 2264 2176 2361 
          319 834 666 340 
          2150 2184 2154 2242 
          1163 1211 1164 2375 
          1899 823 478 2385 
          2190 2218 2108 2229 
          588 718 589 2316 
          1468 2298 1558 2346 
          1792 2224 1685 2288 
          1947 1652 1578 2342 
          2171 2281 1457 2390 
          1637 1722 1612 1808 
          859 904 1016 2389 
          1777 2237 1779 2328 
          1808 1479 1517 1725 
          1119 2170 1057 2280 
          287 78 495 2290 
          548 547 751 2277 
          1150 1135 1204 2330 
          222 2278 414 2380 
          936 1010 935 2263 
          2209 2313 397 2395 
          177 1403 176 1336 
          1895 1701 1893 2353 
          16 2215 43 2331 
          757 2234 459 2311 
          1535 2163 1475 2275 
          1028 1007 847 2273 
          2226 2229 2150 2259 
          1927 1929 1818 2190 
          2217 2351 1510 2397 
          1767 1810 1765 2289 
          401 743 478 2294 
          267 586 1926 2172 
          1729 1975 2045 2232 
          2265 2302 2099 2362 
          1764 1887 2025 1587 
          866 1023 892 2244 
          1853 1854 1647 2357 
          970 865 1019 2387 
          1644 2014 1747 2302 
          436 2211 374 2389 
          1590 1491 1634 2346 
          555 921 873 556 
          2168 2222 2152 2255 
          1327 1279 1195 2208 
          1891 1947 1698 2342 
          124 2184 1876 2323 
          1172 1228 1173 2287 
          826 527 526 2290 
          294 704 354 2239 
          1311 1330 1212 2375 
          2167 2206 1291 2225 
          1483 1640 1763 2254 
          660 2308 403 2313 
          2173 2263 947 2293 
          414 816 759 2278 
          1282 1198 1331 2214 
          2195 2274 2235 2340 
          2184 2229 2006 2242 
          1040 1039 1041 2310 
          293 509 812 2374 
          1277 1380 1278 2203 
          1911 228 592 2291 
          523 625 469 2331 
          67 1235 80 1414 
          288 209 187 129 
          399 2313 398 2385 
          2100 1863 1689 2329 
          1253 1235 1414 2189 
          1131 977 978 2191 
          477 507 814 2339 
          1421 1383 1302 2307 
          69 1134 1213 2348 
          2191 2200 760 2387 
          2168 2179 2156 2320 
          1341 1343 1342 2272 
          67 1337 68 7 
          1415 2187 1416 2321 
          1357 2305 2162 2376 
          954 2159 1122 2233 
          2183 2273 641 2365 
          1037 1214 1148 2326 
          843 653 347 623 
          367 2247 390 2249 
          1623 2281 1459 2397 
          348 925 347 242 
          1644 1946 1845 2302 
          1985 2126 1791 2224 
          497 561 697 2338 
          529 876 878 877 
          2204 2239 2175 2312 
          860 2249 438 2389 
          161 2198 184 2269 
          1700 2068 1706 2236 
          1477 2275 1475 2342 
          1075 1076 1117 2258 
          425 421 698 2322 
          1171 1228 1169 2287 
          680 382 557 2371 
          141 178 142 2330 
          1489 1707 1605 1624 
          155 204 214 2089 
          2183 2222 2152 2266 
          1363 1362 1364 2231 
          2064 1447 1961 1543 
          563 2173 562 2238 
          980 1118 993 2161 
          438 764 763 2249 
          2002 1696 321 2343 
          2241 2287 2153 2368 
          120 944 945 2230 
          1209 2268 1091 2280 
          525 734 526 2201 
          1820 2034 2033 2329 
          1469 1524 1405 2302 
          1516 2192 1375 2334 
          732 517 516 2230 
          1403 177 176 189 
          999 997 1023 2244 
          1210 2268 1209 2280 
          1986 325 239 611 
          35 1585 1437 2351 
          1031 138 166 118 
          830 167 166 139 
          270 546 549 2295 
          993 2161 992 2249 
          1287 1314 1313 2253 
          896 894 895 2345 
          1091 1062 1121 2268 
          1129 1088 1104 2270 
          1293 1389 1423 2167 
          2252 2255 1221 2377 
          1283 2214 2178 2336 
          1983 1982 1671 2250 
          233 231 2120 601 
          1828 1894 1901 2227 
          2090 1913 1659 2276 
          622 624 732 2230 
          369 2207 370 2344 
          2007 2066 1874 2384 
          458 456 457 2234 
          1125 2207 1093 2318 
          1402 1430 1339 2267 
          330 172 140 173 
          1426 1378 1400 2253 
          2012 510 749 511 
          1785 2188 1680 2312 
          390 2247 2161 2249 
          537 386 425 2322 
          518 781 827 2269 
          147 2285 2269 2326 
          1992 1949 1951 2381 
          1481 1379 1527 2254 
          364 366 368 2344 
          573 781 288 2198 
          2183 2222 566 2299 
          1401 1295 1430 2256 
          1197 1307 1331 2214 
          936 1033 940 2234 
          2103 1660 2110 2199 
          385 416 426 2278 
          1720 2194 1666 2349 
          1182 1279 1333 2208 
          1865 1708 1866 2331 
          2230 2261 681 2371 
          1270 2287 1323 2317 
          98 27 61 2189 
          1511 6 56 2351 
          533 2266 536 2347 
          283 2235 667 2274 
          996 1093 995 2207 
          1805 1762 2134 2254 
          2175 2208 2153 2241 
          697 2216 497 2338 
          373 466 797 2262 
          958 2183 959 2266 
          80 1235 14 108 
          731 613 615 2186 
          1467 1653 1508 1609 
          2168 2255 2201 2299 
          1340 2219 1339 2267 
          1934 2115 1734 2381 
          177 1336 115 2228 
          314 316 317 2259 
          233 231 232 2120 
          1407 1512 1533 2163 
          1067 1066 1068 2368 
          1888 1474 1892 2265 
          357 338 337 2355 
          1256 1255 1301 2307 
          1171 1173 1228 2287 
          2194 2294 2148 2369 
          986 2366 985 2368 
          1929 2108 1818 2190 
          729 302 305 2222 
          711 129 210 2341 
          1852 2265 2099 2362 
          1948 323 1696 2343 
          532 407 408 2372 
          1275 2192 1308 2214 
          1908 2288 1907 2395 
          2205 2297 380 2371 
          975 2166 974 2295 
          285 718 588 2277 
          338 2244 334 2355 
          743 744 1655 2029 
          623 2230 783 2371 
          309 2308 487 2319 
          1194 1193 1222 2208 
          2149 2191 2175 2303 
          2078 1645 1714 2218 
          1422 1361 1359 2305 
          1485 1648 1882 1622 
          1567 1970 1649 2397 
          2061 1890 1889 2378 
          363 2165 725 2250 
          366 2249 924 2344 
          1416 2187 1536 2321 
          1288 1322 1289 2363 
          1487 1525 1488 2237 
          639 922 846 788 
          417 2209 726 2260 
          616 2273 922 2365 
          2157 2237 2224 2288 
          1333 1279 1281 2334 
          1904 2294 1903 2370 
          1757 2171 1758 2212 
          1811 2039 2123 2298 
          2246 2248 1451 2272 
          2169 2314 2278 2380 
          135 207 136 2228 
          947 2173 937 2263 
          1926 1718 1925 267 
          1886 1489 1487 2182 
          1005 963 1029 2170 
          987 1018 983 2169 
          2148 2247 2161 2382 
          1784 2212 2045 2361 
          1464 1997 1643 2182 
          524 575 522 2215 
          2257 2267 2202 2321 
          2025 1632 1697 1588 
          1923 1848 1508 1653 
          1697 1462 1587 1887 
          1488 1886 1697 1605 
          585 2172 578 2282 
          1589 1764 1623 1568 
          882 884 258 2249 
          2260 2266 303 2359 
          341 342 343 2396 
          1930 2232 1932 2240 
          1104 1207 1077 2258 
          829 2 29 30 
          372 371 484 2262 
          604 2199 593 2291 
          1200 2253 1285 2270 
          164 1438 144 165 
          243 640 641 2365 
          282 2235 513 2316 
          702 2340 2303 2396 
          1041 1136 1215 2310 
          1332 2203 1208 2270 
          459 612 240 2311 
          225 912 832 2263 
          2219 2246 1402 2267 
          608 1646 235 234 
          599 430 818 2238 
          523 731 625 2331 
          1506 1921 1845 2180 
          2230 2269 2154 2326 
          840 631 732 2230 
          1248 1247 1347 2309 
          2171 2252 2212 2354 
          1199 1227 1200 2270 
          2202 2226 2190 2364 
          1025 991 992 2249 
          52 38 2320 53 
          1438 1502 165 164 
          1590 1896 1635 2346 
          2207 2247 2155 2372 
          1599 2105 1936 1882 
          931 951 1006 2201 
          1237 1138 1137 2196 
          1637 2072 1570 1808 
          1637 2072 1572 1570 
          1629 1774 1497 1773 
          1615 1896 1616 2015 
          2168 2290 2201 2320 
          1590 1896 1591 1635 
          504 888 415 2366 
          1452 1450 1549 2246 
          316 464 457 2234 
          363 2250 725 2291 
          1176 1175 1220 2243 
          2151 2213 2178 2253 
          1079 2159 1078 2296 
          2169 2287 2153 2300 
          102 1708 44 45 
          1903 1832 1655 2294 
          945 2269 2230 2326 
          1474 1698 1513 1888 
          1718 2172 2069 2185 
          562 564 565 2173 
          967 2295 896 2345 
          1073 2325 1218 2335 
          1191 2225 1291 2318 
          256 255 2027 257 
          742 2195 360 2250 
          1346 1451 1503 2158 
          1647 1713 1621 2357 
          961 2170 1017 2262 
          106 44 15 2331 
          2056 1937 1666 2349 
          32 1111 1032 107 
          941 1012 898 2311 
          1733 1754 1755 2229 
          142 147 143 2326 
          120 1031 166 118 
          428 730 775 2259 
          1116 2223 1038 2326 
          147 2269 143 2326 
          726 396 304 2209 
          1427 2305 1359 2376 
          1367 1365 1429 2354 
          689 2220 570 2345 
          1645 237 239 238 
          1369 1368 1370 2237 
          1745 2321 1744 2373 
          2164 2288 2224 2327 
          642 2176 643 2283 
          184 2198 209 2269 
          1763 2187 1483 2254 
          1774 1498 1497 2254 
          2200 2241 1084 2333 
          1801 473 474 220 
          516 517 330 2230 
          675 2185 1719 2199 
          1254 1326 1252 2307 
          1157 2325 2252 2335 
          1964 1952 619 2384 
          670 2284 2177 2339 
          1034 2234 1115 2292 
          1744 1745 1702 2321 
          2180 2206 2197 2317 
          2149 2303 2195 2340 
          1692 1856 1693 2286 
          959 2183 960 2325 
          1609 1848 1653 1508 
          725 2235 603 2291 
          273 275 1712 274 
          1853 1943 2137 2248 
          1904 1905 1903 2294 
          1641 683 291 289 
          83 84 62 2356 
          1661 1994 695 1800 
          121 181 1135 205 
          2096 2097 1723 2275 
          2040 1816 1812 2251 
          1984 1791 2017 2392 
          1002 995 1003 2394 
          1938 2298 2162 2349 
          2106 1919 2079 2229 
          123 1236 121 122 
          1367 1522 1366 2390 
          1017 962 990 2350 
          1953 1954 1990 2384 
          2089 155 153 214 
          747 858 796 437 
          404 798 506 2284 
          1107 1130 1108 2241 
          1900 1894 2074 2227 
          351 2141 352 1661 
          477 772 507 2339 
          842 841 1027 2230 
          1950 2064 1446 2306 
          1949 1950 1951 2306 
          1756 2063 2108 2226 
          2156 2168 2152 2252 
          2147 2226 2196 2238 
          1537 1509 1385 2217 
          702 2303 703 2396 
          2165 2250 1856 2276 
          297 295 296 2195 
          2147 2292 2256 2337 
          162 2269 147 2285 
          315 2238 2173 2259 
          615 1963 1962 2331 
          2278 2366 2241 2368 
          446 669 815 2359 
          662 574 799 2283 
          1208 2203 1185 2270 
          363 297 696 2195 
          953 1022 952 2220 
          1788 2197 1920 2332 
          1772 2192 1807 2286 
          2188 2332 786 2338 
          912 541 226 272 
          1047 1139 1046 2292 
          75 74 52 2290 
          1174 1173 1270 2287 
          1051 2183 957 2255 
          1084 1107 1086 2333 
          347 897 925 240 
          2231 2265 2163 2312 
          1900 1706 1939 2227 
          1733 1732 1942 2358 
          834 318 911 666 
          1907 1782 1909 2361 
          415 888 700 528 
          1503 1451 1453 2357 
          1237 1238 1239 2272 
          1061 1060 1062 2268 
          1476 1513 1638 2342 
          1343 2246 1519 2272 
          781 2198 573 2261 
          2056 2298 1814 2349 
          1640 1581 1662 1579 
          143 945 930 1042 
          650 591 751 2277 
          1171 2287 1267 2317 
          1410 1283 1308 2214 
          1214 2181 1148 2326 
          916 873 568 2388 
          297 363 361 2195 
          1371 1280 1406 2163 
          359 360 361 2250 
          716 824 776 2218 
          461 429 428 2190 
          214 1801 201 2383 
          573 288 791 2198 
          576 790 287 2290 
          2017 1834 2081 2369 
          725 603 503 2291 
          1253 1252 1317 2189 
          602 785 503 2291 
          689 555 249 2345 
          1512 2231 1472 2265 
          2147 2267 2203 2337 
          996 2161 1126 2207 
          150 331 151 149 
          433 927 745 901 
          924 805 482 260 
          2022 1627 1566 1747 
          287 780 576 2290 
          2173 2238 563 2282 
          2100 2067 1863 2329 
          1599 2105 1601 1936 
          347 897 242 925 
          1389 1390 1423 2167 
          500 537 538 2338 
          2208 2241 1174 2287 
          818 430 427 2238 
          620 715 664 2218 
          1768 1862 2131 2213 
          2211 2280 2170 2350 
          1503 1345 1346 2158 
          2155 2225 2167 2236 
          1712 2385 1910 2395 
          2184 2198 127 2285 
          669 2262 815 2359 
          1915 540 406 807 
          127 183 156 2285 
          551 550 321 2343 
          1779 2237 1884 2328 
          550 552 321 2343 
          969 967 1022 2220 
          48 2189 50 2348 
          2010 2245 2008 2367 
          1153 2348 1252 2377 
          300 1656 299 1898 
          647 1641 1898 1827 
          1901 2227 1902 2284 
          1516 1535 1517 2275 
          354 351 294 2239 
          2010 2367 2107 2391 
          1851 2197 1976 2353 
          1647 1553 1621 1713 
          258 366 774 2249 
          210 331 151 711 
          1250 2181 1319 2309 
          758 759 434 2380 
          2180 2231 1364 2317 
          797 261 806 2262 
          547 2277 546 2293 
          1582 1465 1945 1636 
          78 86 495 2290 
          2253 2270 1200 2336 
          938 2234 838 2360 
          1229 1110 1070 2377 
          496 200 187 195 
          1476 2163 1513 2342 
          1089 1199 1088 2270 
          2201 2290 2168 2299 
          659 2247 313 2372 
          2183 2222 2168 2255 
          2202 2238 2172 2301 
          2016 1897 1634 2346 
          420 2200 760 2303 
          2112 1970 1625 2397 
          1008 1007 1028 2273 
          1868 2245 2010 2351 
          1107 2241 1086 2333 
          1536 1515 1485 2321 
          273 2385 1712 2395 
          402 2294 403 2308 
          1434 1412 1312 2304 
          1105 1056 1054 2296 
          2016 1559 1558 1634 
          73 69 33 2348 
          1719 2199 2185 2289 
          1064 1063 1065 2161 
          43 89 20 2215 
          457 456 757 2234 
          2153 2231 2208 2312 
          1075 1103 1077 2258 
          983 1099 1128 2379 
          1724 1738 1806 2275 
          1993 2248 1736 2381 
          1135 182 178 2330 
          2064 1934 1871 2381 
          74 2290 2215 2320 
          1689 2329 2174 2352 
          631 517 899 471 
          478 479 1899 743 
          308 476 440 2382 
          1888 1891 1513 2163 
          1911 592 1912 2291 
          190 207 135 2228 
          2135 1997 1778 2182 
          1392 2180 1393 2317 
          821 809 453 2297 
          1906 1903 1655 2370 
          922 2273 847 2365 
          489 2207 432 2300 
          791 2198 288 2341 
          570 2345 2220 2388 
          1354 1353 1355 2189 
          276 223 913 277 
          1904 2177 1941 2194 
          2194 2294 1904 2370 
          1132 2170 1005 2210 
          2109 2108 1929 2218 
          417 418 419 2260 
          462 2190 775 2218 
          2156 2232 2217 2367 
          716 664 715 2218 
          1008 2255 957 2273 
          1022 967 895 2220 
          1855 2250 2028 2291 
          2226 2238 2190 2259 
          402 2294 400 2313 
          1009 2234 2160 2311 
          2199 2276 2110 2291 
          1278 1380 1420 2267 
          779 412 411 2183 
          159 217 135 2228 
          484 855 371 485 
          1174 2241 1172 2368 
          833 935 835 2360 
          1833 1830 1832 2369 
          727 2234 757 2297 
          617 641 782 2365 
          1134 1152 1213 2348 
          295 811 703 2303 
          680 2261 382 2371 
          2002 661 321 322 
          304 448 305 2222 
          1137 2256 2196 2292 
          1908 1907 1910 2395 
          1954 620 655 2384 
          729 412 534 2266 
          1222 2241 1067 2368 
          1845 1628 1506 2302 
          2180 2197 1969 2362 
          845 841 910 2230 
          1390 2167 1493 2251 
          1832 1642 1899 2385 
          2205 2259 454 2297 
          1429 1383 1384 2171 
          1827 2216 1828 2227 
          1769 2187 2178 2213 
          1786 1798 1787 2188 
          199 1873 171 2046 
          2197 2265 2153 2378 
          1503 2248 1451 2357 
          1010 940 938 2234 
          1259 2354 1368 2393 
          1403 1336 177 2228 
          1709 211 124 153 
          1507 1409 1532 2162 
          1278 2267 1241 2337 
          1685 1789 2126 2224 
          1920 1829 2071 2353 
          186 199 175 2046 
          2150 2205 2160 2259 
          775 776 462 2218 
          1825 1827 1641 2216 
          2264 2288 1907 2361 
          1794 2239 2204 2312 
          1065 1063 1118 2161 
          784 876 583 582 
          2033 2219 1702 2329 
          106 40 104 2331 
          1134 96 1317 2348 
          1771 1770 1774 2254 
          2157 2210 2209 2260 
          1454 2217 1355 2351 
          905 2295 553 2345 
          1074 1072 1120 2325 
          1296 1135 1150 2330 
          167 168 169 2269 
          1291 2167 1292 2206 
          360 773 297 2195 
          2082 2187 1765 2257 
          1364 1472 1363 2231 
          1207 2258 1104 2270 
          1922 1921 1654 2251 
          2252 2307 1429 2354 
          1519 1343 1448 2246 
          2007 1953 2066 2384 
          1106 1056 1105 2296 
          1261 2304 1165 2375 
          1501 1633 1880 1596 
          277 861 276 633 
          873 556 568 555 
          916 569 568 873 
          1400 1526 1499 2187 
          267 1926 601 268 
          185 133 1668 1838 
          1356 2162 1357 2305 
          2176 2324 1978 2361 
          2169 2241 2153 2368 
          1741 2041 2125 2373 
          410 378 566 2299 
          704 2239 294 2374 
          264 2177 670 2284 
          874 873 916 2388 
          2162 2305 2298 2376 
          157 2181 137 2285 
          615 625 731 2331 
          802 2274 512 2355 
          787 278 1695 2188 
          1444 1520 1442 2306 
          2144 1849 1851 2362 
          2196 2238 2226 2259 
          2013 2324 2264 2361 
          2006 2106 2229 1919 
          306 487 436 2319 
          2161 2319 2148 2382 
          568 555 570 2388 
          902 2344 1002 2394 
          1049 1116 1048 2310 
          937 947 1045 2173 
          1513 2163 1891 2342 
          2171 2212 2156 2232 
          1292 1291 1324 2225 
          355 294 351 2239 
          148 194 168 2269 
          2184 2193 2054 2315 
          1396 2192 1528 2254 
          629 1801 474 1964 
          1921 2180 1506 2251 
          1010 2234 938 2360 
          35 1869 2086 1803 
          1939 1904 1940 2177 
          2204 2208 2149 2243 
          2077 1974 1715 2324 
          42 332 101 710 
          1201 1285 1313 2270 
          2248 2272 2246 2352 
          1619 1988 1545 1950 
          1866 2119 1865 2331 
          1502 1438 165 1447 
          493 2277 547 2293 
          360 705 773 2195 
          1928 2050 686 2364 
          905 699 553 549 
          1722 1723 1721 2275 
          441 476 477 2382 
          86 91 495 2290 
          1865 2186 1931 2240 
          728 577 341 2387 
          1957 1956 2107 2391 
          2166 2220 596 2295 
          567 2273 2183 2299 
          2037 2176 1975 2232 
          2181 2326 2285 2330 
          1927 686 326 324 
          566 378 377 2299 
          2026 1800 1661 2239 
          1727 2192 1726 2275 
          1212 2375 1162 2393 
          629 1964 619 2384 
          1698 1614 1565 1613 
          1834 2138 1830 2327 
          2023 1906 1914 2370 
          1565 1698 1613 2022 
          1913 1911 1912 2291 
          104 92 1804 2331 
          24 1840 76 1669 
          1666 1665 1720 2349 
          1925 587 684 267 
          92 221 93 95 
          183 162 156 2285 
          1400 1399 1398 2187 
          1790 1792 2094 2327 
          2113 2302 2180 2362 
          1142 1144 1216 2310 
          871 1018 985 2380 
          969 2220 953 2233 
          1861 2276 2213 2286 
          1783 1781 1782 2361 
          1100 2368 1099 2379 
          403 531 402 2308 
          1379 2178 1435 2254 
          1275 1425 1395 2192 
          390 2249 2161 2319 
          1845 1843 1644 2302 
          878 582 529 246 
          1086 1107 1108 2241 
          1147 1319 1149 2181 
          1278 2203 1380 2267 
          2167 2206 2155 2353 
          1734 2115 1731 2315 
          518 827 516 2269 
          1411 1527 1379 2254 
          2170 2266 2260 2359 
          2217 2281 2171 2367 
          278 355 1800 2188 
          1270 1271 1272 2231 
          909 835 834 2360 
          670 814 506 2339 
          545 544 684 1716 
          364 370 367 2249 
          115 117 1336 116 
          1774 1770 2003 2254 
          866 892 919 2244 
          1495 1534 1493 2251 
          1505 2180 1470 2302 
          743 442 795 2370 
          1708 2240 15 2331 
          949 1006 951 2201 
          1602 1955 1604 2112 
          802 513 512 2274 
          2212 2237 2157 2288 
          703 2303 343 2396 
          357 2244 338 2355 
          1236 123 189 122 
          1609 1945 1610 1653 
          125 152 198 2341 
          861 862 863 2380 
          1290 2225 1288 2305 
          2155 2225 2161 2318 
          1526 2187 1378 2254 
          915 855 806 2262 
          915 261 854 2262 
          763 2319 436 2389 
          2123 1814 1811 2298 
          49 2179 48 2348 
          795 442 443 2370 
          1770 2254 1771 2286 
          1171 1170 1267 2287 
          1433 2231 1271 2317 
          321 1696 322 323 
          885 481 366 2344 
          1079 2214 2159 2296 
          1442 1443 1444 2306 
          553 894 251 905 
          1914 2029 795 2370 
          167 172 330 169 
          1301 2307 1156 2377 
          1627 1644 1747 2302 
          2097 2163 2118 2275 
          1400 1378 1526 2187 
          1833 1832 1903 2294 
          1759 2045 2117 2212 
          421 2175 508 2322 
          121 1296 123 205 
          278 695 1800 355 
          559 289 561 2332 
          2062 1760 1686 2328 
          2178 2276 2165 2286 
          1338 1430 1242 2267 
          2216 2300 2153 2372 
          2185 2199 2151 2289 
          104 1804 105 2331 
          1052 1053 1221 2325 
          1841 2226 1689 2329 
          1561 1470 1628 2302 
          778 2247 772 2339 
          1431 1310 1263 2221 
          99 2240 1669 2245 
          840 624 841 2230 
          688 549 548 2295 
          1671 713 253 714 
          728 530 529 2200 
          1649 1623 1764 1568 
          2252 2255 2152 2325 
          2054 2193 1933 2315 
          1111 2179 1071 2201 
          1726 2192 1725 2275 
          67 1235 13 80 
          410 2283 378 2299 
          562 2173 315 2238 
          894 896 905 2345 
          926 437 747 2389 
          1245 1320 1243 2309 
          343 702 703 2396 
          831 832 225 912 
          2118 2265 1890 2378 
          1023 997 892 2244 
          1900 2227 2177 2284 
          178 179 180 1043 
          2006 1735 1918 2315 
          1337 1414 68 2189 
          832 946 1011 2263 
          2050 393 686 2364 
          2087 1708 44 2331 
          798 2284 670 2339 
          1848 2162 1532 2182 
          98 6 68 2189 
          419 777 397 2313 
          1693 1691 1692 2286 
          1407 1432 1363 2231 
          723 677 377 2299 
          2281 2328 2011 2390 
          1346 2158 1344 2272 
          1353 1421 1254 2189 
          2202 2226 1841 2329 
          2117 1686 1757 2212 
          1783 2288 1684 2361 
          806 855 485 371 
          970 2296 2244 2387 
          148 168 143 2269 
          159 123 217 2228 
          1712 661 273 2395 
          1323 1271 1270 2317 
          203 212 767 150 
          1182 1195 1279 2208 
          2070 2219 1648 2321 
          1666 2194 1987 2349 
          1206 2206 1205 2318 
          1805 2084 1769 2254 
          968 1087 1129 2166 
          864 865 866 2244 
          55 8 1437 36 
          1070 2201 2179 2255 
          1776 1805 2134 2254 
          528 888 920 890 
          1954 2218 620 2242 
          725 363 696 2235 
          1836 1981 1453 2357 
          1191 1324 1291 2225 
          304 302 303 2266 
          671 2183 640 2365 
          1456 1602 1510 2351 
          284 793 578 2282 
          1085 1086 1224 2333 
          903 904 926 2389 
          2182 2221 1431 2304 
          2233 2274 2220 2355 
          1281 1279 1280 2208 
          1963 2186 615 2324 
          589 718 719 2316 
          1785 2312 1680 2378 
          1993 2306 2248 2381 
          136 192 163 2193 
          1420 1380 1381 2267 
          965 1107 1084 2241 
          965 2200 966 2241 
          565 2173 750 2263 
          1059 2280 2210 2375 
          396 395 550 2395 
          2188 2279 2153 2338 
          1441 1546 1449 2219 
          410 2222 708 2283 
          1226 1190 1095 2318 
          1084 2200 965 2241 
          515 594 596 2220 
          620 349 715 2218 
          2121 1663 1912 542 
          854 2262 261 2347 
          828 403 400 2313 
          2147 2258 2173 2292 
          547 2277 548 2295 
          416 2200 422 2278 
          1424 1374 1298 2334 
          1151 2179 1071 2348 
          104 103 469 2331 
          2173 2238 2147 2292 
          759 388 765 2314 
          2099 2265 1889 2302 
          1375 2192 1425 2334 
          454 317 727 2259 
          1446 1447 1445 2306 
          988 904 857 2389 
          870 2366 222 2380 
          764 774 365 2249 
          827 682 681 2261 
          595 249 688 2345 
          694 2244 357 2274 
          859 858 926 2389 
          669 2262 2170 2347 
          1222 1193 1108 2241 
          563 648 737 2282 
          1734 2315 1933 2381 
          499 2338 497 2372 
          506 814 507 2339 
          1681 2095 1737 2312 
          906 1026 973 2295 
          1351 2193 1502 2228 
          1954 655 1990 2384 
          2147 2257 2172 2282 
          236 234 235 1646 
          1221 2255 2252 2325 
          2212 2237 2171 2354 
          569 916 819 336 
          1051 2255 1053 2325 
          1674 1717 2069 2289 
          646 697 647 2216 
          1212 1232 1162 2375 
          2153 2188 2175 2279 
          2174 2196 2147 2226 
          1409 1387 1532 2182 
          139 109 766 140 
          830 139 166 138 
          166 830 138 1031 
          1763 1761 1796 2187 
          2177 2339 2247 2382 
          960 1072 959 2325 
          1550 1549 1835 1618 
          1646 608 235 1948 
          1246 1319 1147 2309 
          1394 1505 1393 2180 
          1376 1535 1516 2334 
          1725 1480 1478 2192 
          234 236 1715 1646 
          236 1715 345 234 
          594 689 595 2220 
          1799 1786 2001 2332 
          1421 1302 1254 2307 
          2104 1810 1809 2289 
          1013 948 946 2293 
          734 868 869 2273 
          1751 742 252 2250 
          2247 2284 2155 2372 
          629 519 473 2323 
          1977 2045 1975 2176 
          1384 1383 1385 2217 
          2012 1983 1671 2250 
          1536 2187 1515 2321 
          2183 2273 2255 2299 
          1730 2055 1728 2232 
          1719 544 2027 1716 
          1093 2207 1125 2394 
          674 1663 255 542 
          1141 2256 1203 2292 
          1631 1498 1662 2254 
          2164 2313 2209 2395 
          1085 1106 1131 2333 
          556 555 921 250 
          1944 2111 1742 2301 
          555 921 894 2345 
          875 2220 895 2345 
          921 895 894 2345 
          1174 2208 1222 2241 
          915 854 261 2347 
          941 2160 1012 2311 
          2153 2300 2206 2372 
          982 863 862 2380 
          356 820 338 2244 
          1791 2224 2017 2392 
          54 27 28 2245 
          819 891 336 916 
          1711 175 171 2046 
          874 2355 952 2388 
          551 2264 550 2343 
          2181 2228 2193 2309 
          1831 2138 2094 2327 
          215 153 213 2383 
          1385 1421 1354 2217 
          1509 2281 2217 2397 
          694 338 357 2244 
          2017 1665 1984 2392 
          1006 11 931 2201 
          820 919 334 2244 
          1546 1999 1620 1548 
          1549 1837 2043 1835 
          671 849 423 851 
          964 2200 890 2366 
          2201 2290 38 2320 
          96 50 14 2348 
          990 988 1017 2350 
          375 754 465 2359 
          2260 2280 2211 2308 
          112 144 1802 114 
          1651 2019 1813 2346 
          1070 2255 2179 2377 
          544 587 1716 676 
          101 20 21 710 
          134 133 1668 132 
          710 20 287 524 
          502 459 240 2311 
          487 375 374 2211 
          94 103 469 92 
          1381 1340 1420 2267 
          478 1655 1899 1832 
          997 1024 893 2355 
          478 479 480 1899 
          659 2247 408 2339 
          139 899 471 111 
          166 944 830 1031 
          111 899 471 219 
          936 2173 1112 2292 
          1089 1087 1124 2233 
          184 198 129 2341 
          147 2326 142 2330 
          116 115 177 1336 
          49 2179 82 2320 
          2209 2210 2152 2266 
          731 574 613 2186 
          1431 2221 1263 2304 
          1633 1501 1880 2187 
          370 2247 367 2249 
          2179 2201 2168 2255 
          309 487 306 2319 
          1658 2276 1660 2289 
          1161 1160 1218 2335 
          981 2350 2211 2389 
          1322 1264 1266 2363 
          1836 2248 1853 2357 
          601 2031 268 1926 
          1366 2354 1367 2390 
          1018 2314 982 2379 
          862 2314 982 2380 
          998 1122 954 2159 
          42 332 40 101 
          1184 1076 1077 2258 
          92 104 1804 105 
          1242 2256 1240 2337 
          103 94 469 769 
          1114 1048 942 2310 
          852 262 329 607 
          1739 1737 1724 2275 
          1018 982 983 2379 
          1774 1573 1662 1971 
          2149 2239 2195 2374 
          125 2184 126 2323 
          91 86 60 2290 
          1180 1328 1200 2336 
          104 40 103 2331 
          2202 2321 2267 2329 
          1902 1901 1900 2227 
          2014 1844 2099 2302 
          541 492 879 912 
          2196 2259 2234 2292 
          541 831 225 912 
          666 909 834 339 
          876 784 583 920 
          11 58 59 2201 
          1477 1517 1535 2275 
          561 2332 697 2338 
          2064 1447 1446 2306 
          1916 1758 1917 2367 
          1230 1139 1141 2292 
          2174 2226 2147 2238 
          199 1873 193 171 
          985 2368 2278 2169 
          1694 1807 1806 2192 
          332 522 523 2331 
          248 741 864 658 
          1669 2240 1932 2245 
          864 918 865 246 
          1408 1431 1409 2221 
          2060 2082 1743 2321 
          10 931 87 88 
          515 802 594 2220 
          1746 2124 1745 2373 
          1309 2221 1165 2304 
          1745 2124 2125 2373 
          1671 749 359 713 
          1073 1072 1074 2325 
          2155 2206 2167 2225 
          422 2175 421 2322 
          100 287 20 2290 
          906 896 1026 2295 
          2278 2279 387 2300 
          2049 23 102 2240 
          1232 2210 1160 2393 
          2154 2230 2160 2371 
          818 2190 429 2271 
          1275 1308 1307 2214 
          1997 1464 1489 2182 
          477 476 778 2382 
          195 209 496 2269 
          2152 2222 2209 2266 
          528 2200 755 2366 
          503 2250 363 2291 
          985 1018 987 2380 
          2161 2225 1064 2318 
          1552 1981 2357 1453 
          1819 1817 1818 2190 
          100 78 287 2290 
          1643 1624 1464 1582 
          932 2160 933 2230 
          437 372 747 2389 
          1387 1409 1431 2182 
          1017 856 961 2262 
          2115 1992 1736 2381 
          2162 2298 1523 2376 
          432 310 489 2300 
          441 814 670 2339 
          222 870 923 2366 
          1259 1428 1368 2354 
          1134 96 72 12 
          2149 2243 2191 2296 
          25 1669 24 23 
          1764 1623 1461 1587 
          2173 2258 2147 2282 
          1188 1168 1322 2363 
          2174 2256 1430 2267 
          1117 2173 1045 2293 
          1018 2379 2169 2380 
          1111 1069 951 2201 
          604 603 690 2199 
          1909 2013 1646 2264 
          484 2262 903 2389 
          970 971 1023 2244 
          1892 1747 1564 2022 
          130 288 131 129 
          855 263 806 485 
          141 1043 178 2330 
          1528 2192 1771 2254 
          273 398 823 2385 
          1116 2230 2160 2326 
          410 409 789 2222 
          2170 2266 446 2347 
          295 2303 702 2340 
          1862 2213 2178 2286 
          458 2263 685 2360 
          2042 2202 1863 2329 
          697 2332 2216 2338 
          1003 1125 1096 2394 
          1972 1978 1977 2176 
          263 915 261 262 
          462 824 237 2218 
          1518 2219 1449 2246 
          1731 2315 2115 2381 
          228 593 592 2291 
          454 2259 727 2297 
          1441 1440 1620 2219 
          1289 1266 1422 2305 
          1236 189 123 2228 
          1002 887 994 2344 
          3 1803 35 5 
          1892 2265 1474 2302 
          1794 1787 1793 2188 
          760 2200 728 2387 
          82 2179 38 2320 
          1539 3 4 5 
          1803 3 35 1639 
          1927 1818 1928 2190 
          1083 1178 1082 2386 
          721 865 864 2244 
          1142 1050 1040 2310 
          1818 2190 1817 2364 
          432 369 431 2314 
          337 819 568 2388 
          1100 1099 1097 2379 
          1280 2208 2163 2334 
          2148 2308 2294 2382 
          2181 2193 2184 2309 
          2147 2257 2203 2267 
          900 525 829 868 
          179 1133 1043 216 
          1669 2245 1840 2356 
          723 377 376 2299 
          969 1022 953 2220 
          508 2175 420 2303 
          865 2244 721 2387 
          69 1134 73 72 
          252 742 359 2250 
          2235 2274 2159 2340 
          502 2297 757 2311 
          404 408 407 2284 
          1474 2265 1472 2302 
          434 633 276 2380 
          160 2184 127 2285 
          1178 2336 1180 2386 
          39 2201 85 2290 
          1438 112 145 144 
          1786 2139 2001 2332 
          2264 2288 2209 2395 
          448 2209 396 2264 
          1082 1089 1124 2386 
          1518 1448 1402 2246 
          1203 2256 1137 2292 
          529 577 728 2387 
          1337 1355 1414 2189 
          453 454 455 2297 
          1757 1686 1760 2328 
          1423 2167 1390 2180 
          1405 1393 1469 2180 
          2092 1993 1854 2248 
          1664 1665 1666 2349 
          2154 2310 2160 2326 
          2176 2222 2152 2283 
          1629 1480 1570 1773 
          2196 2259 2150 2310 
          373 2262 372 2389 
          466 2262 465 2359 
          11 87 10 931 
          1686 1784 1781 2212 
          598 672 231 2271 
          205 182 181 1135 
          2178 2254 1776 2286 
          1876 1709 124 2323 
          611 324 462 2190 
          1195 1224 1193 2333 
          1882 1599 1515 1485 
          1156 1221 1154 2377 
          1684 1783 2057 2288 
          2082 2257 2085 2321 
          1872 1608 144 1802 
          2171 2232 2156 2367 
          165 2088 174 1872 
          1488 2237 1525 2390 
          1383 2217 2171 2307 
          1608 1872 144 1438 
          303 792 417 2260 
          2041 2202 2042 2373 
          430 315 427 2238 
          416 2278 413 2366 
          1725 1726 1771 2192 
          2159 2233 2214 2386 
          2226 2229 1754 2358 
          996 994 1025 2344 
          1271 2231 1270 2317 
          959 1072 1101 2325 
          573 383 724 2261 
          1060 1118 980 2211 
          1797 1766 2082 2187 
          1227 2270 1089 2386 
          786 787 559 2332 
          1162 1311 1212 2393 
          1344 2158 1245 2272 
          1685 2057 1792 2288 
          1170 1299 1267 2317 
          2241 2278 2200 2366 
          1596 1880 1501 2187 
          1797 2060 1881 2187 
          1034 1136 1041 2292 
          752 501 240 2311 
          1424 1298 1281 2334 
          2131 2004 1658 2276 
          1964 630 619 1952 
          1393 1404 1392 2317 
          1952 655 630 619 
          687 386 537 2279 
          541 831 226 225 
          2017 2224 1790 2392 
          2314 2169 2207 2379 
          2167 2206 2180 2317 
          1621 1552 1647 2357 
          1824 1820 1822 2246 
          1745 2125 2042 2373 
          943 2160 1009 2234 
          195 518 169 2269 
          1517 1722 1725 2275 
          1821 1820 1823 2329 
          544 1719 255 676 
          1839 2184 208 2193 
          2081 1665 2017 2392 
          2280 2304 2157 2375 
          1757 2212 1686 2328 
          2098 2281 1758 2328 
          1127 2201 1070 2255 
          434 2314 861 2380 
          2206 2216 2153 2372 
          331 2323 519 2341 
          2025 1697 1587 1887 
          2178 2214 2192 2286 
          50 2189 108 2348 
          1874 1875 1709 2383 
          1862 2213 1861 2276 
          208 2184 163 2193 
          1757 1758 1759 2212 
          513 2274 2220 2316 
          1536 1484 1382 2321 
          1569 1625 1970 1567 
          926 486 484 747 
          2211 2268 2148 2308 
          1519 1452 1451 2246 
          486 926 484 903 
          787 1670 1991 559 
          1085 1131 1084 2333 
          142 178 182 2330 
          756 358 547 2277 
          2150 2196 2158 2226 
          2064 1446 1543 1950 
          1543 1950 1961 2064 
          2203 2257 2187 2321 
          323 321 1696 2343 
          668 694 738 2274 
          1709 2323 1874 2383 
          2208 2243 1182 2333 
          2148 2221 2164 2308 
          1443 2306 1442 2357 
          1200 2270 1227 2336 
          1284 2253 1303 2336 
          1929 611 462 2190 
          27 26 28 2189 
          1185 1186 1184 2258 
          577 342 341 2387 
          1431 2182 1409 2221 
          2174 2246 1402 2272 
          1686 2212 1683 2328 
          2161 2211 2148 2319 
          1002 2344 994 2394 
          1861 2213 1862 2286 
          1033 2234 936 2292 
          807 264 798 2284 
          313 475 489 2247 
          1126 1064 1095 2318 
          635 2205 730 2259 
          1650 264 807 2284 
          1425 1275 1274 2334 
          1405 2180 1469 2302 
          1436 1415 1314 2203 
          2210 2280 2157 2375 
          264 1914 609 2370 
          2278 2300 388 2314 
          30 0 31 768 
          318 456 460 2360 
          719 739 691 2199 
          1069 2179 1070 2201 
          1065 2225 2161 2268 
          943 2234 1039 2310 
          2210 2260 2157 2280 
          1740 2271 1678 2364 
          1229 1155 1154 2377 
          398 273 693 2385 
          1668 133 185 132 
          171 174 1711 165 
          1041 1215 1040 2310 
          2167 2251 2236 2376 
          1915 540 807 265 
          1449 2219 1546 2246 
          264 1914 266 609 
          2210 2335 1160 2393 
          1897 2016 1924 2346 
          1091 2268 1121 2350 
          246 864 721 865 
          2163 2208 2204 2334 
          1189 1288 1324 2225 
          2151 2178 2165 2214 
          613 574 662 2283 
          1149 1319 1249 2181 
          1996 2186 1963 2324 
          115 2193 207 2228 
          1112 1046 1035 2292 
          742 2239 2195 2250 
          438 258 883 914 
          1564 1473 1627 2302 
          1481 1527 1482 2254 
          373 2262 375 2359 
          2149 2195 2159 2340 
          1154 1155 1156 2377 
          2164 2369 2224 2392 
          452 422 451 2200 
          571 383 573 2198 
          9 1006 11 931 
          1319 2181 1147 2309 
          2314 2344 902 2394 
          2214 2235 2151 2336 
          337 334 891 2355 
          1733 2229 1918 2358 
          1045 2173 1117 2258 
          2156 2232 2186 2240 
          2146 2245 1868 2356 
          983 982 984 2379 
          2155 2247 2177 2339 
          763 436 435 2389 
          500 687 537 2338 
          481 745 368 2344 
          1093 2207 1126 2318 
          1237 2256 1238 2272 
          2010 2351 2217 2391 
          330 517 167 2230 
          1214 1149 1148 2181 
          1747 2014 1892 2302 
          2153 2279 2216 2338 
          506 798 670 2339 
          2173 2234 936 2263 
          1299 1334 1300 2206 
          934 1012 942 2160 
          1736 1732 1731 2358 
          1042 1043 216 141 
          1252 2348 2189 2377 
          1279 2208 1281 2334 
          2158 2306 1349 2309 
          1705 1700 1706 2227 
          1782 1781 2140 2361 
          47 74 18 2320 
          1523 2298 1468 2346 
          1856 1692 1857 2286 
          1583 1643 1945 1582 
          208 163 193 2193 
          1828 2216 1829 2353 
          655 619 1952 2384 
          422 2200 426 2278 
          273 275 661 1712 
          1297 1176 1183 2243 
          630 629 1964 619 
          471 472 219 899 
          2152 2264 2212 2288 
          126 2184 124 2323 
          136 2193 137 2228 
          1393 1392 1394 2180 
          1833 2294 1903 2369 
          469 103 769 2331 
          1356 2221 2162 2305 
          1657 1617 2043 1546 
          1065 1118 1061 2268 
          2053 2301 2271 2364 
          1240 2256 1294 2337 
          1656 2227 1901 2284 
          1097 1096 1098 2379 
          1205 2318 2287 2379 
          225 2263 831 2360 
          1812 1813 1811 2298 
          1219 1166 1168 2363 
          731 522 574 2186 
          833 2263 935 2360 
          512 357 649 2355 
          1940 2023 1650 2177 
          1767 1765 1766 2213 
          488 2308 2260 2359 
          1333 2208 1279 2334 
          1989 1963 651 2324 
          1855 2276 2250 2291 
          1056 2296 1106 2333 
          966 1107 965 2241 
          458 685 460 2360 
          1082 1081 1083 2386 
          1226 1189 1191 2225 
          925 347 240 2311 
          452 451 755 2200 
          536 534 671 2183 
          552 693 273 2395 
          414 758 222 2380 
          367 813 365 2249 
          926 904 859 2389 
          1256 1383 1429 2307 
          2163 2265 2118 2378 
          1722 1652 2096 2342 
          1183 1333 1297 2243 
          2208 2231 2163 2312 
          581 579 580 2185 
          876 529 920 877 
          348 925 843 347 
          1878 2180 2167 2353 
          837 318 459 612 
          911 318 319 666 
          1907 2288 1783 2361 
          1927 686 324 1928 
          2013 2264 1909 2361 
          1795 2204 2095 2312 
          2175 2239 2188 2312 
          2092 1732 1736 2248 
          198 127 125 2198 
          1500 1501 1499 2187 
          2279 2338 2300 2372 
          1958 1666 1987 2349 
          507 772 659 2339 
          2149 2192 1694 2204 
          1393 2180 1404 2317 
          1691 1772 1807 2286 
          905 896 906 2295 
          1167 2268 1329 2363 
          1120 1051 1052 2325 
          586 2111 1926 2172 
          152 125 149 2341 
          365 813 764 2249 
          1944 2069 1718 2172 
          2150 2259 2160 2310 
          1102 1232 1059 2210 
          615 613 614 2324 
          1418 2306 1352 2309 
          1180 2336 1227 2386 
          1724 1721 1723 2275 
          1293 1291 1292 2206 
          1855 1982 2028 2250 
          548 751 591 2277 
          914 259 605 882 
          1999 1657 1546 2219 
          1957 1979 1649 2397 
          1479 1808 1570 1725 
          2126 1789 1791 2224 
          96 12 1317 14 
          2207 2247 2161 2318 
          978 977 976 2191 
          359 742 360 2250 
          491 2263 494 2293 
          58 60 333 63 
          1913 2028 1667 2291 
          527 91 709 60 
          620 663 621 2242 
          78 495 22 287 
          66 1710 62 2047 
          2149 2204 2175 2208 
          2252 2335 2237 2354 
          815 465 447 2359 
          1878 2180 1968 2251 
          934 1048 1116 2160 
          1312 1330 1311 2393 
          126 160 128 2184 
          1943 1942 1732 2358 
          1682 2144 1788 2197 
          34 2179 1111 2201 
          255 674 675 2199 
          671 534 779 2183 
          1132 1059 1057 2210 
          1067 2241 1130 2368 
          1035 1033 1112 2292 
          1674 2069 1672 2257 
          496 188 131 187 
          1676 2120 232 393 
          878 918 246 2387 
          161 162 183 2285 
          831 909 225 2360 
          1828 1893 1894 2227 
          2129 2080 2079 2229 
          1489 1530 1487 2182 
          1804 95 92 105 
          1804 95 105 2087 
          1804 470 1962 625 
          1443 1540 1444 2357 
          2155 2225 2177 2247 
          426 2279 2278 2322 
          185 186 133 1838 
          467 2 0 218 
          1409 1507 1358 2162 
          0 30 467 768 
          927 483 481 745 
          366 924 258 805 
          595 2295 2220 2345 
          703 811 509 2303 
          1476 1477 1475 2342 
          2159 2214 2149 2340 
          2075 1837 1657 2246 
          1711 171 175 174 
          2212 2288 2264 2361 
          1846 1643 1847 2182 
          1465 1848 1532 2182 
          20 2215 75 2290 
          869 922 616 2273 
          1838 199 186 2046 
          657 891 919 335 
          1468 1558 1634 2346 
          203 220 201 202 
          1453 2248 1836 2357 
          1196 2214 1225 2386 
          2017 1790 1834 2327 
          1932 2055 2008 2232 
          160 156 137 2285 
          1788 2144 1920 2197 
          623 2311 2230 2371 
          1831 1830 2138 2327 
          832 2263 492 2293 
          1858 2004 1861 2276 
          1876 2145 1874 2184 
          1536 1382 1416 2321 
          719 2185 675 2199 
          2285 2326 147 2330 
          986 2241 966 2366 
          952 1024 954 2355 
          902 1002 1030 2394 
          945 1001 1113 2326 
          910 845 653 843 
          294 665 292 2239 
          1748 351 637 2239 
          1237 1318 1138 2196 
          80 1414 81 68 
          1499 1399 1400 2187 
          959 2266 2183 2325 
          1416 1399 1514 2187 
          1212 1211 1232 2375 
          848 917 846 2365 
          85 39 59 2201 
          1010 938 836 2360 
          1714 1990 1954 349 
          1850 2099 2113 2362 
          974 2166 1103 2293 
          2177 2294 2194 2370 
          885 886 887 2344 
          2197 2231 2180 2317 
          1479 1516 1517 2275 
          860 979 1020 2389 
          56 2351 2245 2356 
          1668 208 1839 2184 
          423 536 671 851 
          798 264 670 2284 
          430 599 762 2238 
          1041 1115 1034 2234 
          927 887 902 2344 
          1119 1058 1092 2280 
          600 2238 2172 2282 
          794 787 786 2188 
          1941 2177 1939 2236 
          35 1437 1639 55 
          354 2239 704 2374 
          1655 743 2029 2370 
          1617 1546 1657 2246 
          1853 2137 1854 2248 
          800 2242 2205 2261 
          1231 1206 1205 2318 
          499 497 498 2372 
          1655 2029 1906 2370 
          2160 2230 932 2311 
          1514 1515 1536 2187 
          1654 1594 1593 1946 
          2298 2346 1523 2376 
          1673 2124 1746 2373 
          1915 2030 1902 2284 
          2314 2379 2207 2394 
          557 382 381 2371 
          1742 2111 1740 2301 
          2224 2327 1790 2392 
          2234 2259 2196 2310 
          1830 1642 1832 2385 
          1531 1345 1503 2158 
          413 2278 414 2366 
          1836 2246 2091 2248 
          414 222 413 2366 
          268 1925 267 1926 
          993 991 1020 2249 
          1522 1457 1459 2281 
          849 423 243 2365 
          1343 1341 1401 2272 
          1264 1168 1167 2363 
          397 726 417 2209 
          1037 1038 1214 2326 
          1457 2281 1509 2397 
          2198 572 2323 520 
          429 427 428 2190 
          545 544 1716 256 
          2185 2257 2069 2289 
          684 1718 1925 1716 
          1562 1747 1566 1627 
          617 2273 616 2365 
          170 1502 115 165 
          1869 2065 1965 2351 
          408 2339 2247 2372 
          942 941 943 2160 
          1384 2217 1509 2281 
          287 2215 20 2290 
          1954 655 620 349 
          1307 1197 1177 2214 
          1837 1549 1617 2246 
          531 403 660 2308 
          2017 2369 2081 2392 
          1825 2071 1829 2216 
          169 194 195 2269 
          1291 1192 1191 2318 
          755 2200 451 2366 
          207 190 177 2228 
          1276 1185 1332 2203 
          1287 1398 1436 2253 
          1676 231 1677 2120 
          2156 2189 2179 2307 
          1451 2248 1453 2357 
          684 1925 545 1716 
          1663 542 257 2027 
          1320 2223 1243 2309 
          215 149 2383 213 
          1949 2306 1951 2381 
          1925 268 267 269 
          281 283 667 2274 
          1931 1865 2119 2186 
          680 783 681 2371 
          2217 2232 2156 2245 
          1175 1056 1220 2296 
          1554 1647 1553 1552 
          55 1511 56 2351 
          1967 2182 1985 2392 
          2246 2272 2174 2352 
          2021 2094 1908 2327 
          659 389 475 2247 
          65 1710 1869 2351 
          1175 1176 1177 2243 
          362 2250 503 2291 
          1119 962 1057 2170 
          681 682 680 2261 
          1919 1918 1755 2229 
          1815 1922 2018 2251 
          1261 1164 1330 2375 
          839 838 1009 2311 
          1315 1258 1161 2393 
          1873 193 171 2193 
          1756 2226 2108 2229 
          2200 2278 416 2366 
          1243 2196 1318 2272 
          778 390 389 2247 
          1824 1835 1837 2246 
          521 711 331 2341 
          533 534 536 2266 
          2209 2260 397 2313 
          1706 2068 1959 2236 
          560 1991 801 280 
          2202 2257 2147 2267 
          6 2189 61 2351 
          294 355 665 2239 
          1681 1795 2095 2312 
          1831 2327 2021 2385 
          2082 2060 1797 2187 
          2200 2241 2175 2322 
          2060 1882 1881 2187 
          1493 1494 1495 2251 
          2196 2256 2147 2292 
          1663 542 543 257 
          1658 1660 2128 2289 
          1910 1696 2002 2343 
          1319 1248 1250 2309 
          2000 2070 1703 2219 
          1105 972 977 2191 
          386 2279 426 2322 
          915 607 262 852 
          108 2189 14 2348 
          68 81 98 2189 
          1157 2252 1158 2335 
          1326 2307 1301 2377 
          1064 2161 1065 2225 
          2150 2205 2154 2371 
          2151 2257 2185 2289 
          881 946 832 2293 
          1854 2248 2051 2357 
          732 624 840 2230 
          921 2345 555 2388 
          1434 2304 1312 2393 
          1552 1554 1981 1618 
          437 435 372 2389 
          1698 1892 1888 1474 
          688 2295 595 2345 
          1062 1091 1233 2268 
          1683 2288 2237 2328 
          447 444 446 2359 
          1934 1949 1992 2381 
          264 1650 1914 2370 
          407 405 404 2284 
          51 54 28 2240 
          144 1608 112 1802 
          1497 1498 1496 2254 
          1657 2083 2034 2219 
          1185 2258 2203 2337 
          132 2102 1668 1876 
          2212 2232 2171 2367 
          1918 2229 2006 2315 
          1206 1299 1170 2206 
          945 120 143 930 
          1842 2202 2041 2301 
          464 2234 316 2259 
          1929 2190 462 2218 
          2306 2315 2248 2381 
          2037 1930 1931 2240 
          1294 2256 1141 2337 
          81 108 26 2189 
          1909 1782 2013 2361 
          2191 2200 2175 2303 
          1457 2281 1522 2390 
          536 692 327 2347 
          47 18 51 2320 
          934 1116 933 2160 
          898 925 897 2311 
          365 2249 366 2344 
          1149 2181 1150 2330 
          2153 2265 2231 2312 
          74 2215 89 2320 
          525 333 58 526 
          525 63 333 768 
          1840 77 90 2047 
          716 2205 664 2218 
          2111 586 601 2271 
          942 1048 934 2160 
          73 33 97 2348 
          1342 1343 1519 2272 
          1900 1940 2024 2284 
          1856 2276 1861 2286 
          2149 2303 2175 2374 
          1329 2268 2221 2363 
          531 309 308 2308 
          246 918 582 247 
          1528 1480 1771 2192 
          2269 2285 2154 2326 
          2199 2235 690 2316 
          2236 2298 2162 2305 
          316 2234 727 2259 
          1487 1413 1369 2237 
          890 920 528 2200 
          1840 99 76 1669 
          231 1677 2031 2271 
          1143 2223 1144 2310 
          853 1004 1029 2347 
          209 2198 781 2269 
          1526 1500 1499 2187 
          1160 1102 1073 2210 
          1045 1112 937 2173 
          929 880 270 2295 
          228 510 785 2291 
          753 809 501 2297 
          144 1438 164 145 
          264 1650 265 266 
          1170 2287 2206 2317 
          212 203 767 473 
          1825 2216 1641 2332 
          2238 2271 2172 2301 
          1929 611 1986 2218 
          127 2198 183 2285 
          807 1650 1915 265 
          550 2264 396 2395 
          1394 1392 1423 2180 
          1892 1474 1564 2302 
          2112 1625 1970 1603 
          1976 2180 1878 2353 
          1699 2167 1700 2353 
          1145 2223 1214 2326 
          2083 1657 1999 2219 
          942 943 1114 2310 
          1725 1480 1771 1773 
          764 438 774 2249 
          137 136 163 2193 
          1261 1263 1309 2304 
          2157 2375 2304 2393 
          94 103 41 769 
          1883 254 252 637 
          254 1883 252 253 
          2096 2275 1722 2342 
          1529 1492 1494 2376 
          363 2195 696 2235 
          823 398 478 2385 
          2158 2352 2248 2358 
          100 86 78 2290 
          678 734 618 2273 
          1648 2219 1486 2321 
          2185 2277 2166 2316 
          1124 2233 1081 2386 
          1121 2211 981 2350 
          891 334 336 335 
          318 460 666 2360 
          525 58 868 2201 
          2166 2220 968 2233 
          318 911 838 2360 
          1942 1690 1754 2358 
          375 2211 487 2308 
          1650 2177 2023 2370 
          2081 1834 1833 2369 
          553 249 894 2345 
          755 415 528 2366 
          1817 1842 2053 2364 
          1222 1174 1194 2208 
          2053 1740 1678 2364 
          923 872 889 2366 
          1611 1722 1612 1637 
          1910 1907 1696 2343 
          321 552 661 2343 
          729 445 302 2266 
          117 164 115 1502 
          2108 2226 2190 2229 
          1851 2197 2144 2362 
          158 206 159 2330 
          673 551 234 2264 
          439 442 401 2294 
          1080 1196 1079 2296 
          1861 1862 1776 2286 
          664 384 663 2242 
          1300 1293 1423 2206 
          60 2201 526 2290 
          2178 2213 2187 2253 
          1685 2224 1683 2288 
          1476 1638 1576 2342 
          582 876 583 247 
          664 2205 384 2242 
          1974 1972 1973 2324 
          1978 2176 1972 2324 
          331 210 151 149 
          1020 2211 980 2249 
          1989 1715 1974 2324 
          593 604 674 2199 
          2163 2275 1891 2342 
          860 859 979 2389 
          351 1661 352 353 
          1663 593 1912 542 
          1663 255 1719 2103 
          2185 2203 2166 2282 
          1124 1081 1082 2386 
          295 2195 811 2303 
          319 834 911 666 
          730 636 775 2259 
          522 2186 731 2331 
          1503 2158 1451 2248 
          510 749 362 2250 
          1783 1782 1907 2361 
          666 909 340 834 
          1977 2176 1978 2361 
          33 2179 97 2348 
          2202 2267 2174 2329 
          1882 2060 1935 2321 
          1843 1844 1644 2302 
          2128 2213 1658 2289 
          34 1111 931 2201 
          556 873 568 569 
          2021 1712 1642 2385 
          2278 2279 2241 2322 
          1875 2089 1709 2383 
          2149 2250 1857 2286 
          2079 2218 1954 2242 
          1056 1106 1220 2333 
          1369 1434 1368 2237 
          780 527 826 2290 
          2150 2229 2226 2358 
          1085 1224 1181 2333 
          613 662 614 2324 
          65 1869 1710 2086 
          1523 2346 1490 2376 
          1920 1895 1829 2353 
          525 900 627 868 
          1905 2194 1720 2369 
          1604 1965 1626 1586 
          1983 749 510 2250 
          2139 1788 2071 2332 
          666 909 339 340 
          1920 2071 1788 2332 
          1062 1233 1166 2268 
          1836 2091 1853 2248 
          34 38 33 2179 
          2209 2327 2164 2395 
          2168 2222 2183 2299 
          2255 2273 2201 2299 
          161 148 147 2269 
          1513 1476 1533 2163 
          1159 2252 1335 2335 
          397 395 396 2395 
          1404 1268 1392 2317 
          921 873 875 2388 
          1485 1648 1622 2321 
          2081 2369 1665 2392 
          1764 2011 1887 2390 
          640 2183 641 2365 
          86 495 91 78 
          287 21 22 20 
          603 2235 2199 2291 
          35 65 37 2086 
          90 66 2047 77 
          2047 90 62 66 
          1073 2210 1101 2325 
          1080 1078 1123 2296 
          1008 2201 1127 2255 
          594 802 649 2220 
          1075 2258 1117 2293 
          1669 23 99 76 
          2157 2221 2164 2392 
          23 1669 24 76 
          553 549 688 2295 
          733 2242 572 2323 
          1426 1400 1398 2253 
          2126 1780 1685 2224 
          577 246 721 2387 
          1684 1686 1781 2212 
          2220 2345 875 2388 
          825 694 668 2274 
          817 464 565 2263 
          2037 2186 2176 2232 
          2257 2321 2202 2373 
          196 1133 1042 930 
          238 1714 349 350 
          1714 237 238 349 
          1751 1752 1749 2239 
          826 2290 2201 2299 
          521 571 791 2341 
          406 807 798 2284 
          231 1676 1677 2271 
          1181 1220 1106 2333 
          2233 2270 2151 2336 
          597 585 600 2172 
          1740 2271 2053 2301 
          320 837 612 911 
          837 318 838 459 
          1560 1558 1653 2016 
          958 851 1014 2183 
          2049 23 25 102 
          2234 2292 1041 2310 
          1724 1806 1727 2275 
          507 404 506 2339 
          2268 2280 2148 2308 
          2284 2339 408 2372 
          15 23 19 2240 
          915 852 854 2347 
          2207 2247 370 2249 
          1079 1122 1078 2159 
          1144 1143 1243 2223 
          1160 2335 1161 2393 
          947 948 1117 2293 
          1618 1836 1835 1981 
          1613 1638 1513 2342 
          559 560 1991 801 
          1395 1308 1275 2192 
          1225 2214 1198 2336 
          105 1804 2087 2331 
          2192 2243 1275 2334 
          298 705 812 2374 
          2294 2370 2177 2382 
          1732 2248 1943 2358 
          1244 1344 1245 2272 
          638 788 846 2365 
          1837 1549 2043 1617 
          1259 1315 1316 2354 
          960 956 1120 2325 
          407 532 498 2372 
          345 1989 346 651 
          902 887 1002 2344 
          2050 1676 393 2364 
          1815 2018 1813 2251 
          2169 2300 2278 2314 
          1670 787 1799 2332 
          1018 2169 987 2380 
          358 756 286 2277 
          874 893 1024 2355 
          410 411 409 2222 
          1307 1273 1275 2243 
          426 2278 2200 2322 
          2172 2271 2111 2301 
          1758 2281 2130 2367 
          728 452 530 2200 
          842 944 167 2230 
          697 1641 647 2216 
          1796 1761 1769 2187 
          1973 2176 1975 2186 
          1819 1818 2108 2190 
          1719 544 255 2027 
          270 2293 546 2295 
          2149 2214 2192 2243 
          255 1663 2027 542 
          742 2239 354 2374 
          2027 544 256 1716 
          1425 2192 1275 2334 
          1641 289 1670 2332 
          804 665 736 2322 
          144 1608 1438 112 
          1538 114 113 112 
          1619 1446 1950 1543 
          1133 196 1042 216 
          1042 141 216 143 
          179 1133 216 197 
          1623 2281 2011 2390 
          1831 1642 1830 2385 
          1776 1693 1861 2286 
          985 2366 871 2380 
          546 2277 547 2295 
          2209 2222 304 2266 
          827 781 682 2261 
          1792 1908 2094 2327 
          590 2277 588 2316 
          1765 2082 1766 2187 
          1255 1256 1257 2252 
          1005 1004 959 2266 
          2202 2321 1745 2373 
          857 903 2389 904 
          1394 1423 1390 2180 
          1055 1054 1056 2296 
          132 2102 1876 2184 
          1862 2178 1776 2286 
          1359 2305 1361 2376 
          1500 1526 1483 2187 
          15 2049 1708 102 
          2113 1843 1969 2180 
          324 463 461 2190 
          2235 2274 513 2316 
          1135 180 178 181 
          926 747 484 2389 
          2177 2227 2155 2339 
          1879 2116 1699 2251 
          926 858 437 2389 
          2080 2132 2109 2229 
          858 438 914 796 
          1358 1466 1357 2162 
          1648 1485 1882 2321 
          1818 2052 1928 2364 
          1869 2086 65 2351 
          753 2297 501 2311 
          1590 1651 1896 2346 
          1398 2187 1436 2253 
          1364 2231 2180 2302 
          1651 1592 1897 2346 
          1199 1201 1234 2270 
          167 2230 168 2269 
          1088 1087 1089 2270 
          1690 2352 2226 2358 
          1472 2265 1364 2302 
          1372 1376 1424 2334 
          686 463 324 2190 
          2220 2274 2233 2316 
          2152 2222 2168 2283 
          463 2190 686 2364 
          1742 2093 1944 2301 
          983 1128 987 2368 
          1269 1433 1271 2317 
          2099 2302 2113 2362 
          1253 1317 1235 2189 
          483 927 481 885 
          481 483 885 482 
          331 519 520 2341 
          1106 2296 1105 2333 
          829 525 58 868 
          944 167 830 842 
          1761 1640 1762 2254 
          478 1832 1899 2385 
          1380 2267 2203 2321 
          1832 2369 1830 2385 
          30 63 525 768 
          1228 2287 1172 2368 
          2049 15 1708 2240 
          871 863 1018 2380 
          2196 2226 2174 2272 
          1531 2158 1503 2357 
          1813 2346 2298 2376 
          1453 1504 1503 2357 
          306 308 309 2319 
          2069 2185 2172 2257 
          1303 1180 1179 2336 
          1702 2202 1745 2329 
          1218 1157 1159 2335 
          2111 2271 1740 2301 
          1825 1829 1828 2216 
          1186 1276 1321 2337 
          1533 1512 1513 2163 
          115 1502 170 2193 
          526 58 525 2201 
          1360 1391 1427 2376 
          1371 2163 1372 2334 
          1344 2158 1419 2309 
          376 576 723 2299 
          2247 2300 313 2372 
          2146 2101 2008 2245 
          549 905 929 2295 
          1400 2187 1398 2253 
          1813 2018 1651 2346 
          760 452 728 2200 
          734 2201 868 2273 
          1655 478 1899 743 
          199 171 175 2046 
          866 865 970 2244 
          1258 1162 1161 2393 
          1967 2059 1985 2182 
          1410 1435 1283 2178 
          74 75 89 2215 
          1094 1093 1095 2318 
          1172 1173 1174 2287 
          548 2277 591 2295 
          2206 2287 2207 2300 
          681 516 827 2230 
          2028 1983 1667 2250 
          1868 2065 1869 2351 
          1148 2181 1149 2330 
          1620 1998 2000 1555 
          1080 1079 1078 2296 
          1548 1657 1546 1999 
          552 2343 550 2395 
          1709 211 154 2048 
          972 2191 1105 2296 
          134 2048 132 1668 
          659 408 507 2339 
          2177 2284 2227 2339 
          2087 46 95 105 
          46 2087 44 105 
          1855 1913 2090 2291 
          79 495 78 91 
          1943 2352 1942 2358 
          678 677 826 2299 
          2109 1929 2142 2218 
          228 1911 1667 2291 
          2212 2288 1683 2328 
          775 462 461 2190 
          504 923 888 2366 
          449 396 550 2264 
          2215 2290 576 2299 
          1152 1317 1252 2348 
          1381 1521 1340 2267 
          2211 2308 375 2359 
          270 879 492 2293 
          2214 2243 2149 2296 
          2186 2240 1865 2331 
          1388 1530 1463 2182 
          2152 2176 2156 2252 
          661 2343 552 2395 
          2215 2290 2168 2320 
          2248 2358 1736 2381 
          1181 1224 1182 2333 
          1678 1676 2052 2364 
          2097 2133 1723 2275 
          2247 2339 778 2382 
          1677 2271 1676 2364 
          73 97 50 2348 
          1467 1468 1466 2298 
          1758 1760 2098 2328 
          2217 2391 2351 2397 
          838 459 318 2360 
          1349 2306 1348 2309 
          1659 2110 1660 2276 
          2171 2217 2156 2307 
          1855 1858 1856 2276 
          1846 1465 1848 1643 
          1835 1824 1836 2246 
          1646 2264 234 2343 
          125 2198 2184 2323 
          1051 1109 1053 2255 
          763 391 707 2319 
          977 2191 972 2387 
          85 59 60 2201 
          1928 686 324 2190 
          2152 2209 2157 2210 
          1621 1713 1542 1540 
          143 168 120 2269 
          143 120 196 930 
          1558 1468 1467 2298 
          1633 1515 1882 1599 
          933 1000 932 2230 
          585 584 578 2172 
          292 508 293 2374 
          284 578 579 2282 
          299 405 646 2216 
          1986 2142 1929 2218 
          902 1030 862 2314 
          2258 2282 2173 2293 
          2036 1859 1753 2204 
          1038 1036 1116 2326 
          1196 2214 1079 2296 
          847 922 869 2273 
          1942 2352 1690 2358 
          590 2166 596 2277 
          1687 1688 1689 2352 
          441 2177 670 2370 
          2193 2309 2306 2315 
          1359 1427 1290 2305 
          1840 2047 90 2356 
          1197 1196 1223 2214 
          1545 1543 1961 1544 
          405 299 1656 2227 
          883 1020 991 2249 
          933 2160 1116 2230 
          1683 1685 1777 2224 
          1848 1508 1532 2162 
          1057 2170 1132 2210 
          619 733 629 2323 
          18 2215 16 2240 
          231 586 597 2271 
          931 1111 951 2201 
          492 881 879 912 
          1364 2231 1433 2317 
          316 314 315 2259 
          641 2183 567 2273 
          2208 2243 2204 2334 
          402 440 439 2294 
          1709 2089 153 2383 
          61 2245 83 2356 
          516 169 518 2269 
          1465 1643 1464 1582 
          514 590 589 2316 
          1147 2181 1214 2223 
          2183 2266 958 2347 
          1515 1633 1880 2187 
          750 2173 494 2263 
          201 213 214 2383 
          2211 2350 2170 2359 
          2255 2307 2179 2377 
          2230 2261 2154 2269 
          28 2189 2156 2245 
          2206 2300 2155 2372 
          2040 1700 1699 2167 
          1483 1481 1482 2254 
          781 518 496 2269 
          453 2297 558 2371 
          1300 1392 1268 2317 
          1162 2375 1232 2393 
          1066 986 987 2368 
          2252 2325 2152 2335 
          1482 1527 1498 2254 
          1876 211 2048 132 
          1074 1052 1157 2325 
          1486 1440 1521 2219 
          1799 2001 1670 2332 
          2119 2186 1865 2331 
          1253 1414 1353 2189 
          889 964 890 2366 
          1868 2351 1710 2356 
          513 2235 282 2274 
          1953 1990 1952 2384 
          1866 1708 2087 2331 
          636 810 776 2205 
          2151 2199 2185 2316 
          1638 1578 1576 2342 
          1473 1474 1472 2302 
          2175 2303 508 2374 
          1009 939 943 2234 
          1039 2234 1041 2310 
          1465 1643 1846 2182 
          167 766 139 517 
          615 2186 1963 2331 
          1650 2284 2177 2370 
          719 2199 691 2316 
          2213 2257 2151 2289 
          2084 2178 1769 2254 
          375 488 754 2359 
          508 2322 2175 2374 
          1558 2298 1924 2346 
          2151 2270 2253 2336 
          303 447 792 2359 
          1109 957 1008 2255 
          845 910 624 2230 
          1926 2111 1944 2301 
          2045 1759 1729 2232 
          982 2314 1018 2380 
          931 34 87 1111 
          1433 1405 1364 2317 
          999 998 997 2244 
          1914 1650 2023 2370 
          1568 1567 1649 1623 
          1568 1567 1569 1649 
          1252 2189 1254 2307 
          1680 1682 1785 2378 
          1141 2292 1139 2337 
          2158 2306 2248 2357 
          1905 1833 1903 2369 
          794 278 787 2188 
          1940 2177 1650 2284 
          793 600 585 2282 
          1712 823 274 1642 
          653 845 623 843 
          1284 1304 1303 2253 
          278 1800 1695 2188 
          1705 1706 2074 2227 
          367 389 390 2247 
          2165 2250 2149 2286 
          882 260 258 805 
          974 2293 973 2295 
          2327 2369 2164 2385 
          2176 2264 643 2324 
          1097 2318 1205 2379 
          2157 2260 2164 2308 
          1583 1643 1582 1584 
          2178 2187 1769 2254 
          522 2215 2186 2331 
          786 2188 787 2332 
          2050 393 1676 394 
          2159 2165 2149 2214 
          1205 2287 1097 2379 
          1776 2254 1770 2286 
          737 648 286 2282 
          1939 2227 1706 2236 
          1749 2149 1753 2239 
          599 598 597 2271 
          1718 267 1926 2172 
          2149 2204 1753 2239 
          1595 1615 2015 1593 
          1083 1079 1225 2386 
          1146 1145 1216 2223 
          221 92 469 1804 
          170 207 115 2193 
          1647 1981 1836 2357 
          221 93 94 92 
          344 702 343 2396 
          615 626 1962 1963 
          92 221 469 94 
          1540 1988 1541 1619 
          533 445 534 2266 
          330 172 766 140 
          754 792 447 2359 
          2220 2274 802 2355 
          2192 2214 2149 2286 
          944 166 120 1031 
          1608 1872 1438 1447 
          1625 1567 1458 2397 
          1091 2280 2268 2350 
          1446 2064 1543 1447 
          1545 1950 1543 1619 
          1240 1141 1140 2337 
          1987 1720 2143 2194 
          1794 2188 1793 2239 
          2156 2252 2171 2307 
          1397 1375 1478 2192 
          1029 2170 854 2347 
          413 222 415 2366 
          1717 1716 1718 2185 
          1387 1431 1386 2182 
          198 2198 125 2341 
          2171 2328 2281 2390 
          729 2222 412 2266 
          220 203 201 473 
          629 630 1964 474 
          404 2284 506 2339 
          1182 2208 1333 2243 
          375 2262 374 2389 
          2072 1773 1629 1570 
          2237 2304 1434 2393 
          2122 1571 1629 1575 
          1773 2072 1629 2122 
          1771 1480 1497 1773 
          1143 2196 1243 2223 
          165 1871 1711 171 
          1873 1838 193 1933 
          165 1872 1438 144 
          879 541 912 272 
          243 617 638 2365 
          440 2294 402 2382 
          383 2198 800 2261 
          2243 2296 1220 2333 
          1813 2251 2018 2346 
          1755 1754 1756 2229 
          315 2173 464 2259 
          115 1351 1336 1502 
          1275 2243 1273 2334 
          1430 2174 1401 2256 
          1755 2132 2129 2229 
          2234 2263 458 2360 
          1434 2237 1412 2304 
          1208 1201 1313 2270 
          1751 1671 1982 2250 
          2178 2192 1410 2254 
          2203 2258 2147 2337 
          1192 1291 1334 2206 
          502 821 455 2297 
          1869 1803 35 2351 
          955 2273 2183 2365 
          1352 1350 1418 2228 
          1198 2214 1282 2336 
          2148 2305 2221 2363 
          1284 1435 1377 2178 
          388 2278 387 2300 
          1065 2161 1118 2268 
          1247 1320 1245 2309 
          371 855 903 2262 
          2244 2387 2340 2396 
          1198 1225 1196 2214 
          1487 1369 1525 2237 
          775 2190 428 2259 
          1381 2267 1380 2321 
          73 96 1134 2348 
          2244 2274 694 2340 
          1662 1482 1631 2254 
          9 1006 829 57 
          2148 2349 2194 2392 
          2218 2229 2226 2259 
          1034 1033 1035 2292 
          572 520 733 2323 
          260 924 805 882 
          326 686 1928 2050 
          23 2049 1669 2240 
          2157 2280 2260 2308 
          2190 2238 2202 2364 
          153 2089 214 2383 
          1518 1339 1439 2219 
          1340 1439 1339 2219 
          1359 1360 1427 2376 
          1759 1916 1729 2232 
          2205 2218 775 2259 
          1174 2231 2208 2287 
          1046 1045 1047 2292 
          370 2207 475 2247 
          397 777 395 2395 
          2152 2222 2183 2255 
          1478 1480 1528 2192 
          339 909 834 2360 
          1498 1774 1662 2254 
          1502 2193 115 2228 
          984 1003 1096 2394 
          608 551 321 2343 
          496 209 781 2269 
          1092 1091 1090 2280 
          1175 1223 1055 2296 
          2190 2271 2238 2364 
          194 148 161 2269 
          1809 1810 1767 2289 
          1955 2351 1956 2391 
          444 2266 446 2359 
          1223 2214 1196 2296 
          345 614 717 2324 
          756 2277 493 2293 
          126 127 160 2184 
          1908 2057 1783 2288 
          298 2303 2195 2374 
          384 379 381 2205 
          465 2262 373 2359 
          249 553 688 2345 
          2158 2272 2223 2309 
          2151 2253 2178 2336 
          143 2269 945 2326 
          313 489 310 2300 
          1190 1231 1094 2318 
          376 378 799 2283 
          1867 2114 1669 2240 
          1019 865 878 2387 
          1007 848 847 2365 
          1137 2196 1136 2292 
          570 2220 594 2388 
          611 1927 1986 325 
          1006 58 11 2201 
          725 2250 2165 2291 
          1105 1054 972 2296 
          2244 2296 2159 2340 
          1249 2181 1250 2228 
          2206 2287 2153 2317 
          1195 2208 1182 2333 
          924 886 885 2344 
          2246 2329 1820 2352 
          380 453 2371 2297 
          1429 1365 1257 2354 
          1272 1306 1305 2231 
          837 318 612 911 
          2156 2240 2186 2320 
          1795 1681 1794 2312 
          669 466 815 2262 
          1491 1492 1490 2346 
          185 193 199 1838 
          1938 1966 1664 2349 
          1779 1683 1777 2328 
          1718 267 587 1925 
          974 975 1103 2166 
          18 2240 51 2320 
          1156 2307 2252 2377 
          500 770 497 2338 
          1113 1042 945 2326 
          1751 1883 252 2239 
          302 2222 729 2266 
          1822 1688 2058 2352 
          1659 1913 2110 2276 
          1115 1039 939 2234 
          1490 1360 1361 2376 
          95 1804 92 221 
          252 742 1751 2239 
          1856 1858 1861 2276 
          255 675 1719 2199 
          255 1719 2103 2199 
          2294 2308 402 2382 
          914 259 606 605 
          1702 1704 1744 2321 
          2042 2202 1745 2373 
          458 464 817 2263 
          1807 2192 1694 2286 
          1659 1658 2004 2276 
          857 2262 988 2389 
          1529 1493 1391 2376 
          687 2279 537 2338 
          2153 2287 2206 2300 
          1754 2229 1733 2358 
          844 843 925 2311 
          588 650 285 2277 
          2237 2335 2157 2393 
          1232 1160 1162 2393 
          2216 2338 2279 2372 
          2131 2213 2004 2276 
          438 2249 763 2389 
          672 2190 463 2364 
          1458 1510 1625 2397 
          738 281 668 2274 
          311 687 499 2300 
          979 2211 1020 2389 
          1927 686 1928 326 
          1375 1516 1478 2192 
          2161 2225 2155 2247 
          2085 2257 1744 2321 
          976 2200 2191 2387 
          1100 2287 1228 2368 
          1233 1210 1167 2268 
          22 20 78 287 
          1660 2199 2103 2289 
          843 653 348 347 
          287 21 20 710 
          508 2303 509 2374 
          710 43 20 524 
          1731 1733 1918 2358 
          1662 1640 1579 2254 
          1436 1398 1399 2187 
          1441 1449 1518 2219 
          2087 44 105 2331 
          2008 1730 2009 2232 
          489 369 432 2207 
          1112 2173 1045 2292 
          504 888 505 700 
          1335 2252 1315 2335 
          737 2173 563 2282 
          1012 2160 932 2311 
          2027 544 255 256 
          441 2370 439 2382 
          1364 1362 1433 2231 
          120 944 1031 930 
          496 188 200 712 
          169 712 518 200 
          70 69 71 1032 
          1273 2243 1297 2334 
          1118 1060 1061 2268 
          1245 2158 1344 2309 
          753 623 783 2371 
          203 212 201 473 
          332 41 42 40 
          1841 2190 1819 2226 
          2011 1885 1887 2328 
          1114 943 1039 2310 
          2176 2212 2045 2232 
          572 2198 2323 2242 
          1780 2059 2135 2182 
          1731 2315 1736 2358 
          1675 1673 1672 2373 
          2065 2351 2010 2391 
          1402 2174 1430 2267 
          1407 2163 1406 2231 
          1792 2288 1908 2327 
          161 184 209 2269 
          320 837 241 612 
          612 897 837 241 
          305 789 409 2222 
          442 2294 439 2370 
          1931 2186 2037 2240 
          1338 1420 1340 2267 
          1654 1495 1922 2251 
          2137 1943 1732 2248 
          2149 2239 1752 2250 
          1352 1418 1348 2306 
          1304 1286 1328 2253 
          1856 2165 1857 2250 
          1655 2294 743 2370 
          2160 2259 2234 2310 
          751 547 358 2277 
          1321 1240 1140 2337 
          1985 1984 1967 2392 
          1468 1523 1466 2298 
          2094 2021 1831 2327 
          1868 2010 2065 2351 
          26 48 28 2189 
          1637 1612 1572 1808 
          1808 1479 1570 1637 
          1725 2072 1570 1773 
          2072 1725 1570 1808 
          1858 1659 2004 2276 
          1175 2243 1177 2296 
          969 1087 968 2220 
          621 572 733 2242 
          1017 2262 2170 2350 
          1800 1793 1798 2188 
          1973 2186 1996 2324 
          2184 2223 2181 2309 
          387 687 311 2300 
          675 740 676 2185 
          432 765 706 2300 
          234 1646 1715 2324 
          664 2218 2205 2242 
          1205 2206 1170 2287 
          1725 2192 1479 2275 
          1705 2227 1893 2353 
          1852 2099 1850 2362 
          1095 1190 1094 2318 
          1818 1817 2052 2364 
          1011 937 935 2263 
          957 2183 955 2273 
          426 421 425 2322 
          1840 24 76 77 
          2166 2293 974 2295 
          546 547 548 2295 
          9 29 57 829 
          1438 117 164 145 
          117 1438 164 1502 
          2148 2225 2177 2236 
          1884 1887 1885 2328 
          933 1001 1000 2230 
          358 650 751 2277 
          2054 2184 1839 2193 
          2044 1890 1679 2378 
          414 2278 222 2366 
          1305 2208 1174 2231 
          1327 2208 1305 2231 
          1435 2178 1411 2254 
          599 2238 818 2271 
          2081 1833 1905 2369 
          246 248 918 247 
          721 864 741 722 
          1727 1806 1807 2192 
          529 920 877 528 
          1310 1265 1329 2221 
          2053 1741 1740 2301 
          1034 1115 1033 2292 
          778 389 772 2247 
          1657 1548 1546 1547 
          47 82 53 2320 
          540 1915 406 2030 
          2030 539 540 301 
          300 1656 301 299 
          79 495 91 709 
          526 60 527 333 
          1905 1720 2081 2369 
          527 60 709 333 
          620 2218 664 2242 
          2204 2275 1737 2312 
          162 161 147 2269 
          1387 1388 1463 2182 
          1518 1402 1339 2219 
          2009 2010 2008 2367 
          312 2300 499 2372 
          1059 2210 1232 2375 
          386 2278 426 2279 
          767 519 331 2323 
          937 2173 936 2263 
          2152 2168 2156 2176 
          1436 1399 1416 2187 
          2188 2239 2175 2322 
          1270 1305 1174 2231 
          1525 2237 1370 2390 
          1712 823 1642 2385 
          1108 1193 1086 2241 
          1071 1069 1111 2201 
          1070 1127 1069 2201 
          757 727 457 2234 
          1983 510 1667 2250 
          569 916 568 819 
          1710 2351 65 2356 
          250 249 894 251 
          1838 186 199 185 
          777 828 399 2313 
          642 822 643 2264 
          643 673 234 2264 
          23 2049 25 1669 
          1799 787 1695 2188 
          736 786 538 2188 
          183 198 184 2198 
          771 384 664 2205 
          1038 2223 1145 2326 
          2199 2213 2151 2289 
          759 2314 434 2380 
          683 1641 647 289 
          826 526 678 2201 
          11 59 34 2201 
          91 64 79 709 
          1562 1561 1644 1627 
          1946 1561 1563 1628 
          1644 1627 1747 1562 
          571 2198 791 2341 
          760 2303 2191 2387 
          1128 2368 983 2379 
          1315 2252 1335 2354 
          1351 1336 1403 2228 
          1921 1495 1654 2251 
          1427 2167 1292 2305 
          1980 1649 1979 2281 
          1246 2223 1320 2309 
          1684 2288 2212 2361 
          1177 1176 1273 2243 
          2032 2213 2128 2289 
          1080 1123 1055 2296 
          2084 1862 1768 2213 
          327 607 535 2347 
          329 327 928 2347 
          2158 2196 2150 2223 
          1034 1202 1136 2292 
          958 2266 1004 2347 
          730 317 635 2259 
          2038 1922 1815 2251 
          486 484 485 903 
          1903 1906 1904 2370 
          2218 2226 2190 2259 
          75 2215 74 2290 
          704 293 812 2374 
          2149 2208 2175 2243 
          249 250 894 555 
          250 894 555 921 
          1745 2202 2042 2329 
          903 484 485 855 
          748 926 747 486 
          1887 1462 1587 2390 
          1525 1462 1488 2390 
          705 2195 742 2374 
          494 2263 2173 2293 
          693 2385 273 2395 
          2205 2261 2154 2371 
          644 642 643 2283 
          927 745 481 2344 
          1768 2131 2032 2213 
          860 883 438 2249 
          1183 2243 1181 2333 
          509 811 2374 2303 
          1296 2181 1249 2228 
          586 2172 597 2271 
          1843 2180 2113 2302 
          1385 1509 1384 2217 
          2130 1917 1758 2367 
          558 809 753 2297 
          2241 2278 2169 2279 
          2258 2292 2147 2337 
          1292 2167 1291 2225 
          2168 2176 2152 2283 
          1844 2113 2099 2302 
          1418 1350 1250 2228 
          1414 1235 80 2189 
          1043 2326 1044 2330 
          313 659 475 2247 
          1335 2252 1257 2354 
          538 770 500 2338 
          1976 1851 1850 2362 
          2168 2201 2179 2320 
          1519 1451 1342 2272 
          642 2222 2176 2283 
          520 2198 571 2341 
          1386 2182 1431 2304 
          1924 2039 1811 2298 
          54 2240 99 2245 
          1208 1313 1332 2270 
          109 219 111 471 
          1512 2163 1407 2231 
          1969 1968 1878 2180 
          517 899 139 830 
          1979 2367 2281 2391 
          1303 1328 1180 2336 
          760 761 420 2303 
          2211 2308 2148 2319 
          1916 2232 1759 2367 
          1067 1130 1066 2368 
          1850 1849 1852 2362 
          1451 2158 1346 2272 
          314 428 427 2259 
          1957 2107 1979 2391 
          1955 2065 1956 2351 
          376 2215 576 2299 
          1964 2323 629 2383 
          1931 1930 1865 2240 
          1467 2162 1923 2298 
          1842 2301 2053 2364 
          737 494 564 2173 
          868 2201 949 2273 
          307 476 308 2382 
          1682 2362 2197 2378 
          1134 1213 71 69 
          1312 1260 1434 2393 
          1313 2203 1332 2270 
          1103 2258 1075 2293 
          966 2200 964 2366 
          1951 1713 2051 2357 
          778 307 390 2319 
          1326 1155 1153 2377 
          2040 2068 1700 2236 
          986 966 1015 2366 
          2207 2287 2206 2318 
          917 638 846 2365 
          2237 2354 2335 2393 
          1822 2246 1820 2352 
          402 439 401 2294 
          875 895 921 2345 
          1260 2237 1434 2393 
          2193 2228 1418 2309 
          1254 2189 1421 2307 
          583 784 701 920 
          1191 1190 1226 2318 
          447 465 754 2359 
          1148 2326 2181 2330 
          1480 1725 1570 1773 
          1049 2223 1116 2310 
          600 793 648 2282 
          539 2030 540 406 
          1401 2174 1402 2272 
          2185 2277 579 2282 
          1027 841 1000 2230 
          756 547 493 2277 
          629 733 519 2323 
          935 2263 1010 2360 
          405 2227 1656 2284 
          1244 1318 1239 2272 
          1801 473 201 2383 
          2170 2210 1057 2280 
          1800 2188 355 2239 
          1824 1822 2091 2352 
          718 2185 719 2316 
          1647 1836 1853 2357 
          1290 1324 1288 2225 
          498 2216 646 2372 
          2115 2315 1734 2381 
          1126 1095 1093 2318 
          1265 1408 1356 2221 
          258 774 438 2249 
          246 529 878 2387 
          1177 1197 1223 2214 
          488 660 418 2260 
          1230 1141 1203 2292 
          1329 1309 1310 2221 
          1786 2188 1785 2332 
          1680 1787 1794 2312 
          165 1872 1871 2193 
          883 991 884 2249 
          1888 2163 1512 2265 
          297 361 360 2195 
          643 2283 2176 2324 
          1892 1889 1888 2265 
          2152 2222 2176 2264 
          1622 1998 1555 1648 
          2368 985 2278 2366 
          1641 697 289 2332 
          16 18 89 2215 
          1677 1676 1678 2364 
          1658 2213 2131 2276 
          2245 2351 1868 2356 
          1257 1316 1335 2354 
          2225 2305 2148 2363 
          1165 2221 1210 2268 
          772 2247 659 2339 
          2211 2249 1020 2389 
          313 310 312 2372 
          2177 2227 1939 2236 
          916 2355 874 2388 
          2021 2327 1908 2395 
          1498 1527 1496 2254 
          1875 1964 1801 2383 
          1835 1452 1549 2246 
          1446 1520 1444 2306 
          512 2274 357 2355 
          1193 2208 1195 2333 
          406 405 539 2284 
          1867 1930 2114 2240 
          455 757 502 2297 
          183 184 161 2198 
          657 864 658 919 
          722 864 657 919 
          657 864 741 658 
          918 248 741 864 
          182 206 142 2330 
          1504 1552 1621 2357 
          2237 2354 1370 2390 
          927 902 433 2344 
          2155 2236 2167 2353 
          1357 2162 1523 2376 
          883 860 438 914 
          2186 2215 16 2331 
          1262 1263 1261 2304 
          1927 1929 611 1986 
          326 1927 324 325 
          1893 1701 1705 2353 
          1880 1882 1515 2187 
          2313 2385 693 2395 
          1402 2246 1343 2272 
          852 329 928 2347 
          2146 2010 1868 2245 
          1389 1427 1391 2376 
          897 925 240 2311 
          1979 2281 1649 2397 
          608 1646 234 2343 
          1909 1948 1696 2343 
          1050 1216 1049 2310 
          597 2172 600 2238 
          1717 1719 1716 2185 
          1827 1901 1656 2227 
          2304 2375 1330 2393 
          1162 1258 1311 2393 
          2066 1964 1875 2323 
          825 668 667 2274 
          574 2215 376 2283 
          2160 2234 943 2310 
          1907 2343 1910 2395 
          1290 1289 1359 2305 
          756 2282 2277 2293 
          459 2234 456 2360 
          156 157 137 2285 
          1876 211 1709 2048 
          231 393 1676 2271 
          1299 1206 1334 2206 
          1375 1374 1376 2334 
          1716 1719 676 2185 
          416 422 426 2278 
          1864 2149 1857 2286 
          212 149 213 2383 
          667 668 281 2274 
          100 20 75 2290 
          2064 2306 1949 2381 
          1164 1165 1163 2375 
          759 765 434 2314 
          1648 1555 1486 2219 
          1986 237 239 1645 
          1172 2241 1222 2368 
          1205 1206 1170 2206 
          1763 1880 1596 2187 
          237 1714 238 1645 
          1005 1029 1004 2266 
          2265 2362 1852 2378 
          115 1336 1351 2228 
          2177 2225 2155 2236 
          255 1663 1719 2027 
          964 966 965 2200 
          736 2188 538 2322 
          1681 1680 1794 2312 
          1664 2349 1966 2392 
          1488 1462 1884 2390 
          2227 2236 2155 2353 
          2092 1736 1993 2248 
          1118 1063 993 2161 
          2165 2199 2151 2235 
          2184 2198 2154 2242 
          1195 1193 1194 2208 
          638 639 846 788 
          639 638 846 244 
          1189 1187 1188 2225 
          1042 1113 1044 2326 
          285 358 286 2277 
          1872 165 1438 1447 
          375 2308 488 2359 
          1042 1043 141 2326 
          56 1511 55 6 
          1191 1189 1324 2225 
          35 1437 55 56 
          125 2323 149 2341 
          1787 2188 1794 2312 
          2231 2287 1270 2317 
          1667 1911 1913 2291 
          1590 1592 1651 2346 
          981 2211 979 2389 
          874 952 875 2388 
          875 2345 921 2388 
          741 918 864 246 
          753 2311 623 2371 
          2230 2311 2160 2371 
          557 381 380 2371 
          381 2205 380 2371 
          2047 1710 62 2356 
          588 591 650 2277 
          616 734 869 2273 
          782 2273 617 2365 
          1153 1155 1229 2377 
          1175 1177 1223 2296 
          819 891 916 334 
          842 517 631 2230 
          1289 2305 1288 2363 
          2314 2379 1018 2380 
          378 708 645 2283 
          916 334 337 819 
          1942 1754 1733 2358 
          828 400 399 2313 
          2104 1809 1877 2289 
          1277 1332 1314 2203 
          1220 2243 1175 2296 
          1492 1491 1590 2346 
          553 894 249 251 
          1409 2162 1408 2221 
          1290 1292 1324 2225 
          191 147 142 2330 
          575 576 376 2215 
          1505 1506 1470 2180 
          1057 2210 1059 2280 
          356 2244 694 2396 
          2197 2206 2180 2353 
          998 1078 1122 2159 
          2100 1821 1823 2329 
          2249 2319 763 2389 
          1950 1545 1543 1961 
          1889 2265 2061 2378 
          2148 2319 2308 2382 
          1682 2197 1785 2378 
          1720 1905 2143 2194 
          2279 2322 537 2338 
          968 2220 1087 2233 
          165 1502 1447 2193 
          881 880 1013 2293 
          1038 1049 1145 2223 
          272 270 271 879 
          1207 1234 1208 2270 
          1764 1887 1461 2390 
          1105 2191 1131 2333 
          2166 2258 1103 2293 
          2000 2083 1999 2219 
          1437 1511 55 2351 
          2004 1862 1861 2276 
          2090 1659 1858 2276 
          2040 1960 2068 2236 
          2170 2260 2211 2359 
          137 2184 160 2285 
          2016 1634 1558 2346 
          1839 2102 1668 2184 
          1687 1689 1841 2226 
          862 1030 982 2314 
          2118 2163 1888 2265 
          1035 1046 1230 2292 
          1662 1579 1482 2254 
          129 711 288 2341 
          58 1006 829 868 
          1006 9 11 57 
          1698 1947 1613 2342 
          153 214 213 2383 
          411 2183 412 2222 
          1073 1101 1072 2325 
          1296 123 205 2228 
          922 847 846 2365 
          1186 1140 1217 2337 
          1450 1519 1448 2246 
          2166 2277 590 2316 
          2034 2219 2033 2329 
          2193 2315 2306 2381 
          1937 2298 1938 2349 
          1304 1328 1303 2253 
          1673 2257 1672 2373 
          838 911 836 2360 
          2157 2224 2164 2288 
          1323 1267 1269 2317 
          520 2323 2198 2341 
          2026 1661 1748 2239 
          2220 2355 649 2388 
          674 255 1663 2199 
          1701 1895 1976 2353 
          1934 1933 1871 2193 
          1406 1407 1373 2163 
          1776 2178 2084 2254 
          1014 960 958 2183 
          62 61 83 2356 
          276 870 223 222 
          1905 2294 2194 2369 
          132 208 1668 2184 
          891 919 892 2244 
          2008 2245 2232 2367 
          2219 2321 1702 2329 
          1153 1151 1152 2348 
          936 2234 1010 2263 
          828 777 419 2313 
          1338 1339 1430 2267 
          1198 1179 1225 2336 
          1165 2304 2280 2375 
          1657 2034 2075 2246 
          514 513 515 2316 
          2152 2252 2168 2255 
          848 1007 955 2365 
          984 1099 983 2379 
          1865 2240 1708 2331 
          225 909 339 2360 
          808 640 779 2183 
          436 374 435 2389 
          600 762 599 2238 
          690 514 720 2316 
          419 660 403 2313 
          1913 1912 2110 2291 
          1933 2315 2193 2381 
          2207 2318 1125 2379 
          1266 2305 1289 2363 
          2191 2296 972 2387 
          2158 2223 2150 2309 
          1179 1180 1178 2336 
          735 538 537 2322 
          1745 2067 1702 2329 
          2178 2213 2165 2276 
          2075 1824 1837 2246 
          1727 1721 1724 2275 
          804 425 698 2322 
          736 735 804 2322 
          303 444 447 2359 
          646 405 407 2216 
          786 559 561 2332 
          1142 1040 1215 2310 
          1871 2193 2064 2381 
          2152 2266 2210 2325 
          933 932 934 2160 
          1890 2061 1679 2378 
          1194 1305 1327 2208 
          1471 1524 1469 2302 
          2150 2223 2196 2310 
          1328 2253 1200 2336 
          1128 1099 1100 2368 
          2199 2276 2213 2289 
          2154 2261 2198 2269 
          953 1124 969 2233 
          76 90 84 2356 
          1980 2011 1649 2281 
          2148 2369 2164 2392 
          1019 972 970 2387 
          1164 1211 1212 2375 
          682 781 573 2261 
          2014 1889 1892 2302 
          721 246 865 2387 
          1529 1490 1492 2376 
          2174 2202 2147 2267 
          1840 2101 1870 2356 
          1338 1241 1420 2267 
          2147 2202 2172 2257 
          1817 1841 1842 2364 
          2165 2195 363 2235 
          1951 2306 1988 2357 
          1291 1293 1334 2206 
          534 2183 536 2266 
          898 839 941 2311 
          2011 2328 1887 2390 
          2206 2216 2155 2353 
          978 2191 976 2200 
          253 713 1883 252 
          252 1671 359 713 
          65 62 1710 2356 
          693 552 395 2395 
          1000 845 932 2230 
          489 2247 2207 2300 
          1254 1302 1326 2307 
          171 193 192 2193 
          246 918 865 2387 
          2177 2284 264 2370 
          718 2277 2185 2316 
          1355 2189 1511 2351 
          1951 2306 1993 2381 
          1783 1907 1908 2288 
          426 425 386 2322 
          1926 2172 2111 2301 
          237 611 462 2218 
          313 2300 310 2372 
          772 389 659 2247 
          2148 2194 2177 2382 
          2188 2197 1785 2332 
          1130 1067 1108 2241 
          45 2049 102 1708 
          842 631 840 2230 
          1169 1205 1170 2287 
          99 76 84 2356 
          1308 1331 1307 2214 
          1294 1295 1325 2256 
          1396 1411 1410 2254 
          175 174 146 1711 
          832 912 881 2293 
          158 157 156 2285 
          878 877 976 2387 
          156 191 158 2285 
          2119 1963 1996 2186 
          459 2234 838 2311 
          1693 1775 1691 2286 
          1648 2070 1555 2219 
          1674 1673 2073 2257 
          1035 1202 1034 2292 
          686 2050 394 393 
          2045 1977 1784 2361 
          1460 1461 1462 2390 
          1719 676 675 255 
          2164 2369 2294 2385 
          1670 2001 1641 2332 
          1777 2182 1778 2237 
          693 2313 399 2385 
          1483 1482 1579 2254 
          2011 2281 2098 2328 
          1872 1447 1961 2064 
          956 1051 1120 2325 
          1293 2167 1423 2206 
          1040 1050 1114 2310 
          1685 1792 1789 2224 
          923 504 222 2366 
          2170 2262 854 2347 
          1661 1800 355 2239 
          1710 1868 1869 2351 
          1884 1778 1886 2237 
          1337 6 1355 2189 
          1600 1599 1601 1936 
          1599 1882 1622 1485 
          1246 1247 1248 2309 
          2210 2266 959 2325 
          2200 2278 2241 2322 
          168 194 169 2269 
          1316 1428 1259 2354 
          596 2220 2166 2316 
          1012 844 898 2311 
          1889 2265 1892 2302 
          2148 2308 2164 2369 
          778 2339 477 2382 
          568 570 649 2388 
          35 1585 1803 1639 
          1298 1297 1333 2334 
          1008 1028 950 2273 
          1751 2239 742 2250 
          313 2247 489 2300 
          831 2263 833 2360 
          1753 1752 1864 2149 
          1168 1264 1322 2363 
          1315 1161 1159 2335 
          445 533 446 2266 
          1744 2257 1746 2373 
          1900 1901 1894 2227 
          120 2230 945 2269 
          2169 2279 2278 2300 
          1696 1907 1909 2343 
          1845 1593 1946 1654 
          1921 1506 1654 1495 
          590 514 515 2316 
          1115 2234 1033 2292 
          1390 2167 1389 2376 
          720 691 690 2316 
          2012 749 714 511 
          2297 2311 753 2371 
          2248 2315 2158 2358 
          2110 1912 593 2291 
          676 1719 675 2185 
          2264 2324 2176 2361 
          1681 1739 2044 2312 
          2045 2212 1977 2361 
          1281 2208 1280 2334 
          2067 2100 1823 2329 
          1274 1298 1374 2334 
          2197 2206 2153 2317 
          1620 1999 1546 2219 
          2165 2214 2159 2235 
          676 740 580 2185 
          2176 2212 2152 2264 
          938 939 1009 2234 
          1140 1139 1217 2337 
          667 283 696 2235 
          292 2239 665 2322 
          690 2199 603 2235 
          1893 2227 1828 2353 
          53 74 47 2320 
          996 992 1126 2161 
          1136 1138 1215 2196 
          1412 2182 1386 2304 
          1493 2251 2167 2376 
          23 1669 99 2240 
          811 509 2374 812 
          1718 1716 587 2185 
          952 2220 875 2388 
          1276 1186 1185 2337 
          1303 2253 1328 2336 
          1238 1401 1341 2272 
          994 2344 2207 2394 
          276 913 870 2380 
          832 912 492 2263 
          1839 193 208 1838 
          32 1213 1032 2348 
          800 2205 381 2261 
          332 524 522 2215 
          2167 2236 2225 2305 
          2218 2229 2205 2242 
          408 2284 404 2339 
          526 2201 826 2290 
          515 2220 596 2316 
          1146 1320 1246 2223 
          1282 1283 1284 2336 
          1102 1132 1101 2210 
          840 841 842 2230 
          1663 255 2103 2199 
          672 598 818 2271 
          1944 1672 2069 2301 
          613 2283 662 2324 
          464 2173 565 2263 
          2136 2204 1794 2239 
          845 653 623 2230 
          1175 1055 1056 2296 
          1845 1946 1628 2302 
          450 789 305 2222 
          875 1022 895 2220 
          1718 2069 1717 2185 
          1958 1959 1960 2236 
          1839 1838 208 1668 
          1365 1316 1257 2354 
          1777 2224 2182 2237 
          1823 1820 2033 2329 
          1090 1121 989 2350 
          1248 1418 1250 2309 
          2128 1660 1877 2289 
          2053 1678 1817 2364 
          1474 1613 2022 1564 
          1058 2280 1059 2375 
          459 838 837 2311 
          1317 1152 1134 2348 
          1242 1295 1294 2256 
          1608 1802 1544 1538 
          401 2294 478 2385 
          276 870 913 223 
          903 857 2389 2262 
          1895 1920 1851 2197 
          2277 2282 2166 2293 
          104 469 92 2331 
          1178 1180 1227 2386 
          1900 2177 1940 2284 
          379 635 380 2205 
          998 1024 997 2355 
          2213 2276 1658 2289 
          670 2177 441 2339 
          1354 2189 1355 2217 
          2175 2239 2149 2374 
          1439 1340 1521 2219 
          1837 1835 1549 2246 
          1417 1346 1344 2272 
          1065 1187 1064 2225 
          2109 2218 2080 2229 
          447 446 815 2359 
          957 2255 2183 2273 
          2226 2272 2158 2352 
          1824 2091 1836 2246 
          444 445 446 2266 
          797 669 261 2262 
          1708 46 44 45 
          1363 1512 1407 2231 
          1098 1094 1231 2318 
          1708 46 2087 44 
          1808 1479 1637 1517 
          1250 2228 2181 2309 
          1370 1525 1369 2237 
          2079 2229 2218 2242 
          1315 2354 1259 2393 
          1052 1074 1120 2325 
          670 2177 264 2370 
          1025 994 886 2344 
          427 2190 429 2238 
          1976 1850 1969 2362 
          396 2264 2209 2395 
          1767 2213 2032 2289 
          749 359 362 2250 
          1453 2246 1836 2248 
          1882 2187 2060 2321 
          2225 2268 1219 2363 
          1273 1307 1177 2243 
          2161 2225 2148 2268 
          580 579 578 2185 
          469 470 1804 625 
          2056 1814 1937 2349 
          470 469 1804 221 
          625 626 1962 615 
          2136 2026 1750 2239 
          149 767 150 331 
          1296 1251 1236 2228 
          1942 2058 1690 2352 
          38 52 2320 2290 
          1235 1317 14 2189 
          1602 2351 1955 2397 
          689 570 555 2345 
          761 341 343 2396 
          708 410 789 2222 
          2064 2193 1447 2306 
          1146 1147 1145 2223 
          381 382 383 2261 
          2237 2288 2212 2328 
          1767 1766 1768 2213 
          2037 2232 1930 2240 
          1941 1958 1987 2194 
          499 2279 687 2338 
          1546 2219 1657 2246 
          1779 1885 2062 2328 
          1257 2252 1429 2354 
          643 2176 642 2264 
          43 710 20 101 
          1825 1828 1827 2216 
          332 43 40 101 
          1182 2243 1183 2333 
          710 43 332 101 
          675 674 739 2199 
          2005 1839 2054 2184 
          708 2222 642 2283 
          2007 2005 2006 2184 
          564 563 737 2173 
          899 517 139 471 
          2085 2082 1765 2257 
          1272 1305 1270 2231 
          139 899 111 830 
          842 631 517 899 
          2174 2272 2226 2352 
          2256 2292 1141 2337 
          870 913 871 2380 
          565 464 562 2173 
          2173 2234 464 2259 
          2042 2041 1863 2202 
          549 546 548 2295 
          968 1026 967 2295 
          1934 1992 2115 2381 
          861 633 277 634 
          861 803 634 901 
          400 2294 401 2385 
          401 478 398 2385 
          985 2278 2380 2169 
          550 2343 2264 2395 
          1326 1301 1155 2377 
          1774 1497 1771 2254 
          1504 1443 1531 2357 
          2007 2184 2006 2384 
          61 2189 27 2245 
          437 858 860 2389 
          1331 1198 1197 2214 
          23 99 19 2240 
          2181 2285 158 2330 
          16 17 18 2240 
          1641 1826 1825 2332 
          2076 1796 1797 2187 
          1426 1286 1304 2253 
          1609 1945 1848 1636 
          2080 2129 2132 2229 
          1968 2180 1921 2251 
          1280 2208 1306 2231 
          1104 2258 1103 2270 
          1222 1067 1172 2368 
          43 16 89 2215 
          1983 2012 749 2250 
          2153 2216 2206 2353 
          2147 2196 2174 2256 
          1611 1477 1722 1517 
          624 910 653 632 
          417 2260 419 2313 
          985 872 871 2366 
          2327 2385 2313 2395 
          1225 1079 1196 2386 
          307 306 707 2319 
          1230 1202 1035 2292 
          678 526 734 2273 
          2075 2034 1820 2246 
          834 666 339 2360 
          641 2273 782 2365 
          857 1017 988 2262 
          1086 1193 1224 2333 
          647 1641 697 289 
          291 1641 289 290 
          2252 2307 2255 2377 
          1408 2162 1356 2221 
          1679 1682 1680 2378 
          1292 2225 1290 2305 
          30 57 29 829 
          1922 1615 1494 2251 
          58 1006 11 57 
          867 734 868 869 
          628 468 867 627 
          900 627 868 867 
          734 867 616 869 
          616 922 628 788 
          1763 1483 1500 1630 
          600 2172 585 2282 
          1957 1970 2112 2397 
          1596 1763 1630 1860 
          99 2245 1669 2356 
          1722 2127 1652 2342 
          137 157 135 2228 
          1890 2265 1889 2378 
          1066 1128 1068 2368 
          318 459 456 2360 
          686 2190 1928 2364 
          1794 2204 1795 2312 
          391 2249 390 2319 
          1252 1253 1254 2189 
          1515 1633 1882 1880 
          1882 2105 1880 1633 
          1884 1697 1462 1488 
          243 423 671 2365 
          1887 1764 1461 1587 
          2215 2240 18 2320 
          2148 2225 2161 2247 
          2153 2279 2169 2300 
          616 617 618 2273 
          2186 2215 2168 2320 
          782 641 567 2273 
          327 535 533 2347 
          327 692 907 2347 
          327 533 536 2347 
          1368 2354 2237 2393 
          1287 1286 1398 2253 
          1071 1111 32 2179 
          1958 2056 1666 2349 
          1306 1327 1305 2231 
          167 944 830 166 
          944 166 167 120 
          1098 1231 1205 2318 
          517 172 766 330 
          1687 1819 2063 2226 
          2294 2308 2148 2369 
          170 136 207 2193 
          1329 1265 1264 2363 
          252 1883 1748 2239 
          1658 2128 2032 2213 
          2236 2305 2162 2349 
          492 541 879 270 
          1891 2275 2096 2342 
          815 2262 466 2359 
          1060 2211 1121 2268 
          1401 1238 1295 2256 
          2149 2296 2191 2340 
          141 142 143 2330 
          1181 1106 1085 2333 
          1841 1863 1842 2202 
          989 990 1090 2350 
          1368 1428 1370 2354 
          35 2086 1869 2351 
          862 901 902 2314 
          1621 1540 1443 2357 
          92 104 103 469 
          787 2188 1799 2332 
          1220 2296 1056 2333 
          1788 2139 1785 2332 
          1522 2281 1459 2390 
          1430 2256 1242 2267 
          299 300 1898 683 
          1413 1412 1434 2182 
          497 499 500 2338 
          1813 2298 2251 2376 
          2002 2343 661 2395 
          1285 2253 1313 2270 
          369 370 364 2344 
          642 2222 822 2264 
          1163 1165 1209 2280 
          2107 2367 1979 2391 
          1751 1982 1752 2250 
          2052 1676 2050 2364 
          1160 2210 1073 2335 
          1609 1945 1636 1610 
          1636 1945 1583 1610 
          1945 1465 1848 1636 
          1945 1609 1848 1653 
          768 63 333 31 
          63 30 525 58 
          709 91 64 60 
          1411 2178 1410 2254 
          185 1668 208 1838 
          807 1650 265 264 
          757 455 727 2297 
          1870 2047 1840 2356 
          2236 2251 1812 2298 
          2153 2312 2188 2378 
          252 1671 713 1883 
          1125 1094 1098 2318 
          678 2273 679 2299 
          1423 2206 2167 2317 
          1332 1185 1208 2203 
          1894 1705 2074 2227 
          821 502 501 2297 
          1021 877 890 2200 
          267 584 586 2172 
          1221 1158 1157 2252 
          2194 2349 1665 2392 
          1694 2192 2149 2286 
          168 167 120 2230 
          1882 1935 1648 2321 
          1910 2385 2021 2395 
          1460 1522 1461 2390 
          631 517 732 2230 
          1084 2241 1107 2333 
          2177 2194 2148 2236 
          938 940 939 2234 
          1490 2346 1492 2376 
          2236 2298 1812 2349 
          755 528 530 2200 
          1868 1710 1870 2356 
          1016 2350 981 2389 
          84 90 62 2356 
          2158 2248 1503 2357 
          1267 1268 1269 2317 
          405 406 404 2284 
          1722 2096 1723 2275 
          1812 2298 2056 2349 
          2164 2221 2157 2308 
          1129 1087 1088 2270 
          127 2184 125 2198 
          337 891 916 2355 
          1365 1366 1428 2354 
          1656 299 1827 2216 
          1944 2093 1672 2301 
          2194 2369 2148 2392 
          1288 1188 1322 2363 
          304 303 726 2209 
          420 2175 422 2200 
          1484 1486 1521 2219 
          671 640 243 2365 
          15 44 1708 2331 
          2031 1677 2111 2271 
          529 877 878 2387 
          1397 1425 1375 2192 
          1703 2033 2034 2219 
          891 892 893 2244 
          1105 1131 1106 2333 
          1903 2294 1655 2370 
          264 609 443 2370 
          56 2245 61 2356 
          597 2238 599 2271 
          1058 1119 1057 2280 
          1158 2252 1159 2335 
          1282 2214 1283 2336 
          2178 2253 1284 2336 
          285 2277 286 2282 
          627 900 468 867 
          390 2247 778 2319 
          594 570 689 2220 
          1947 1891 1652 2342 
          543 592 2121 229 
          1736 1992 1993 2381 
          443 609 795 2370 
          2150 2229 2184 2242 
          1985 2182 1780 2224 
          1687 1841 1819 2226 
          2179 2189 2156 2320 
          105 44 104 2331 
          2159 2274 2233 2355 
          1911 592 229 2121 
          229 228 1911 230 
          1841 1817 1819 2190 
          1506 1495 1921 2251 
          1045 2173 947 2293 
          1337 7 6 68 
          412 2222 2183 2266 
          1511 1454 1355 2351 
          1971 1574 1631 1662 
          1573 1774 2122 1971 
          1774 1498 1662 1573 
          720 589 719 2316 
          215 2323 124 2383 
          1196 1080 1223 2296 
          1044 2326 1148 2330 
          1913 2276 2090 2291 
          351 1661 355 2239 
          520 519 733 2323 
          1923 1508 1848 2162 
          2175 2322 2239 2374 
          1126 992 1063 2161 
          252 1671 1751 2250 
          1537 1454 1456 2351 
          2207 2287 2169 2300 
          984 982 1030 2394 
          1687 2226 1690 2352 
          237 715 349 2218 
          1824 2246 1822 2352 
          2158 2272 2248 2352 
          716 715 824 2218 
          1840 2245 2101 2356 
          2165 2276 2199 2291 
          1807 1726 1727 2192 
          20 287 524 2215 
          2221 2224 2182 2392 
          194 161 195 2269 
          1649 2281 1623 2397 
          850 2183 671 2365 
          1091 1121 1090 2350 
          891 893 916 2355 
          1250 1249 1319 2181 
          1872 165 1447 2193 
          2093 1741 2373 2301 
          532 659 313 2372 
          1790 2224 1792 2327 
          1185 2258 1207 2270 
          584 585 586 2172 
          365 364 367 2249 
          1049 1048 1050 2310 
          1306 1432 1406 2231 
          1489 1464 1530 2182 
          1924 1558 1653 2298 
          1611 2127 1722 2342 
          1148 1044 1037 2326 
          80 81 1414 2189 
          1384 1509 1457 2281 
          2143 1904 1941 2194 
          753 783 558 2371 
          1689 1863 1841 2329 
          1095 1064 1226 2318 
          2221 2305 1356 2363 
          1954 349 620 2218 
          728 2200 529 2387 
          1689 2226 2174 2329 
          2111 601 2031 2271 
          2004 2213 1862 2276 
          908 2183 958 2347 
          1352 1445 1351 2193 
          27 83 61 2245 
          1969 1850 2113 2362 
          1349 1531 1442 2306 
          1004 2266 1029 2347 
          1349 2158 1531 2306 
          838 2234 459 2360 
          845 623 844 2311 
          60 64 333 63 
          760 2200 2191 2303 
          1467 1923 1653 2298 
          856 854 961 2262 
          228 1667 510 2291 
          137 2184 2181 2193 
          439 441 443 2370 
          2159 2195 2165 2235 
          2081 1720 1665 2369 
          1269 1268 1404 2317 
          1622 1998 1557 1555 
          2153 2231 2197 2317 
          2070 1998 1648 1555 
          1622 1998 1648 1557 
          1998 1620 2000 1999 
          1999 1556 1998 1620 
          923 870 872 2366 
          139 172 140 766 
          880 929 270 879 
          210 331 711 2341 
          879 541 272 270 
          725 2165 363 2235 
          352 637 254 2141 
          1192 1231 1190 2318 
          1840 76 99 2356 
          1492 2346 2251 2376 
          288 2198 129 2341 
          1214 2223 2181 2326 
          780 2290 826 2299 
          1702 2067 2033 2329 
          623 624 622 2230 
          953 2220 954 2233 
          1236 1251 1403 2228 
          2202 2301 2172 2373 
          1932 1930 1728 2232 
          796 606 858 748 
          882 605 914 258 
          2340 2387 2303 2396 
          1803 1539 1639 1585 
          1819 2190 2108 2226 
          675 739 719 2199 
          1585 1455 1437 2351 
          1116 1049 1038 2223 
          1785 2197 2188 2378 
          349 655 350 1990 
          119 120 118 930 
          1714 1990 349 350 
          1043 1042 216 1133 
          1755 1918 1733 2229 
          1955 2391 1957 2397 
          2195 2303 2149 2374 
          1550 1981 1618 1835 
          2130 1758 2098 2281 
          1613 1474 2022 1698 
          1364 2265 2231 2302 
          1506 2180 1845 2302 
          1550 1981 1554 1618 
          1780 2182 1777 2224 
          1737 2204 1738 2275 
          1554 1647 1552 1981 
          296 295 702 2340 
          868 734 525 2201 
          1722 1517 1477 2275 
          2110 2276 1913 2291 
          1100 1169 1228 2287 
          1361 2305 1357 2376 
          2157 2237 2212 2335 
          749 2012 714 713 
          915 854 856 2262 
          1071 2179 32 2348 
          713 1671 253 1883 
          252 1751 1671 1883 
          1816 1699 2116 2251 
          1294 1141 1240 2337 
          1891 2163 2097 2275 
          2198 2242 2184 2323 
          1542 1988 1540 1713 
          1383 2171 1429 2307 
          1203 1202 1230 2292 
          2196 2292 2234 2310 
          1988 1619 1545 1541 
          1644 1561 1628 2302 
          308 2308 309 2319 
          1861 1693 1856 2286 
          835 909 833 2360 
          1627 1471 1561 2302 
          461 462 324 2190 
          1239 1341 1417 2272 
          835 1010 836 2360 
          658 657 919 335 
          648 284 286 2282 
          73 50 96 2348 
          368 745 433 2344 
          1121 2268 2211 2350 
          490 225 685 2263 
          182 178 181 1135 
          2059 1847 2135 2182 
          2159 2214 1079 2386 
          8 55 1437 1511 
          1780 2135 1778 2182 
          2022 1474 1892 1698 
          391 813 367 2249 
          641 808 567 2183 
          2271 2301 2202 2364 
          2163 2275 2204 2312 
          294 2239 292 2374 
          863 871 913 2380 
          660 2260 488 2308 
          681 2261 680 2371 
          1957 2112 1955 2397 
          1122 2159 1079 2386 
          966 986 1130 2241 
          2270 2336 2233 2386 
          1210 2221 1329 2268 
          766 139 172 167 
          139 766 471 517 
          1848 1846 1966 2182 
          1735 2054 1734 2315 
          430 562 315 2238 
          2192 2254 2178 2286 
          305 409 412 2222 
          2031 231 2120 1677 
          850 917 848 2365 
          1251 1249 1250 2228 
          1524 1472 1364 2302 
          1465 1582 1945 1643 
          402 2308 531 2382 
          1703 2083 2000 2219 
          946 881 1013 2293 
          760 422 452 2200 
          1362 1272 1271 2231 
          1193 2241 2208 2333 
          739 604 691 2199 
          862 861 901 2314 
          1246 1147 1146 2223 
          1561 1644 1627 2302 
          1020 883 860 2249 
          1219 2268 1166 2363 
          619 620 621 2384 
          32 1111 34 2179 
          1489 1707 1997 1886 
          2212 2252 2152 2335 
          582 878 529 876 
          476 307 778 2382 
          874 875 873 2388 
          2196 2226 2150 2259 
          1137 1138 1136 2196 
          757 2297 2234 2311 
          2194 2294 2177 2382 
          1979 2107 1917 2367 
          1306 2208 1327 2231 
          471 472 899 631 
          624 840 632 631 
          933 1116 1036 2230 
          866 970 1023 2244 
          2172 2257 2202 2373 
          1900 2074 1706 2227 
          803 746 634 901 
          1734 1731 1735 2315 
          861 803 434 633 
          745 803 433 901 
          401 398 400 2385 
          1314 1415 1277 2203 
          1463 1464 1465 2182 
          1669 2049 1867 2240 
          2117 1757 1759 2212 
          261 535 607 2347 
          1449 1546 1617 2246 
          1502 165 170 2193 
          2171 2307 2252 2354 
          2155 2227 2216 2372 
          1523 1361 1357 2376 
          731 2186 615 2331 
          1370 2354 1428 2390 
          1623 1764 2011 2281 
          1908 1792 2057 2288 
          1578 1652 1577 2342 
          1494 2251 1493 2376 
          1639 3 35 36 
          746 927 745 483 
          1629 1774 1573 1497 
          1575 2122 1573 1629 
          1629 1774 1773 2122 
          1896 1922 1615 1635 
          2015 1593 1654 1595 
          1593 1845 1506 1654 
          1593 1845 1946 1628 
          1654 1615 1495 1593 
          1654 1615 1922 1495 
          1983 510 2012 1667 
          169 712 330 518 
          712 173 169 330 
          1344 1346 1345 2158 
          1209 1210 1233 2268 
          956 1014 955 2183 
          369 2314 2207 2344 
          1451 2248 2158 2272 
          2198 2261 781 2269 
          2073 1673 1746 2257 
          1389 1391 1390 2376 
          802 512 649 2355 
          837 612 459 2311 
          1653 1558 1467 2298 
          2248 2352 1943 2358 
          1771 2254 2192 2286 
          334 919 891 2244 
          373 371 372 2262 
          2147 2238 2196 2292 
          318 837 838 911 
          950 2201 1008 2273 
          2196 2256 1237 2272 
          752 753 501 2311 
          1725 1478 1480 1479 
          1896 2018 1635 2346 
          1747 1564 1627 2302 
          2204 2275 2163 2334 
          108 14 50 2348 
          1150 2181 1296 2330 
          449 822 448 2264 
          2172 2185 578 2282 
          388 816 385 2278 
          2151 2203 2185 2257 
          528 877 529 2200 
          1899 823 1642 480 
          1812 1814 2056 2298 
          458 457 464 2234 
          1050 1048 1114 2310 
          1877 1809 2128 2289 
          1679 2312 2044 2378 
          665 2188 736 2322 
          1975 1973 1972 2324 
          782 679 678 2273 
          667 696 296 2274 
          28 2240 54 2245 
          2248 2306 1993 2357 
          334 820 657 919 
          1932 2240 2232 2245 
          523 769 332 2331 
          1135 178 180 1204 
          1463 1532 1387 2182 
          1966 2162 1848 2182 
          396 726 397 2209 
          1221 2252 1157 2325 
          2051 1713 1647 2357 
          1486 2219 1484 2321 
          2160 2311 2297 2371 
          2192 2214 1275 2243 
          1021 965 978 2200 
          1342 1451 1346 2272 
          1411 1435 1410 2178 
          826 2201 678 2299 
          551 673 449 2264 
          1832 2294 1833 2369 
          679 566 377 2299 
          685 339 460 2360 
          1508 1923 1467 2162 
          1411 1496 1527 2254 
          492 879 881 2293 
          1540 2306 1444 2357 
          942 2160 943 2310 
          584 267 1718 2172 
          1811 1814 1812 2298 
          1410 2192 2178 2214 
          26 108 50 2189 
          1661 355 1800 695 
          956 2183 1051 2325 
          2174 2226 1689 2352 
          2189 2217 2156 2245 
          2009 2107 2010 2367 
          125 215 149 2323 
          837 838 839 2311 
          1657 1837 1617 2246 
          2234 2297 2160 2311 
          657 891 335 334 
          819 891 334 336 
          743 744 2029 795 
          744 743 1655 479 
          1605 2020 1707 1886 
          929 905 906 2295 
          761 343 703 2303 
          303 2209 304 2266 
          281 282 283 2274 
          1624 1707 1584 1643 
          1624 1643 1584 1582 
          1464 1707 1997 1489 
          567 808 411 2183 
          1229 1154 1110 2377 
          414 2278 759 2380 
          592 543 2121 542 
          566 2183 411 2222 
          851 908 536 2183 
          1348 1520 1352 2306 
          1886 2182 1487 2237 
          1997 2135 1847 2182 
          1506 1628 1470 2302 
          395 552 550 2395 
          1738 1724 1737 2275 
          1722 1721 1725 2275 
          2178 2214 2151 2336 
          1177 2214 1223 2296 
          1111 88 87 931 
          1291 2225 2206 2318 
          295 703 702 2303 
          1755 2129 1919 2229 
          960 2183 956 2325 
          15 2240 16 2331 
          1514 1399 1499 2187 
          1682 1852 1849 2362 
          2209 2222 2152 2264 
          449 673 822 2264 
          1654 1615 1593 2015 
          1615 1654 1922 2015 
          1973 2037 1931 2186 
          1637 2072 1808 1572 
          1722 1517 1725 1808 
          1330 2304 1261 2375 
          1722 1611 1517 1637 
          1312 2304 1330 2393 
          2172 2238 597 2271 
          2015 1616 1615 1595 
          1852 2362 1682 2378 
          1773 1774 1497 1771 
          1803 3 1539 5 
          1446 1444 1619 2306 
          1059 1232 1211 2375 
          1467 1466 1507 2162 
          1516 1479 1478 2192 
          1353 1414 1355 2189 
          1864 2149 1752 2250 
          1357 1356 1358 2162 
          304 305 302 2222 
          418 754 488 2359 
          1139 1230 1046 2292 
          623 753 752 2311 
          178 1043 1204 2330 
          781 2261 827 2269 
          1891 2097 2096 2275 
          827 2230 516 2269 
          618 734 616 2273 
          1653 1560 1610 1609 
          327 907 928 2347 
          1038 1037 1036 2326 
          1902 2024 1915 2284 
          1845 1921 1968 2180 
          810 771 716 2205 
          388 2300 765 2314 
          601 586 231 2271 
          872 2366 870 2380 
          992 991 993 2249 
          2181 2223 2154 2326 
          1350 1403 1251 2228 
          1596 1500 1763 2187 
          2166 2185 2151 2203 
          1513 1891 1698 2342 
          1763 1596 1630 1500 
          1701 1699 1700 2353 
          547 546 493 2293 
          2222 2283 410 2299 
          1436 2187 1415 2203 
          1672 1673 1674 2257 
          1450 1448 1449 2246 
          557 558 680 2371 
          135 136 137 2228 
          218 1 2 0 
          2 900 218 467 
          762 2238 600 2282 
          811 2195 298 2303 
          1477 1576 1611 2342 
          2166 2233 2151 2316 
          1090 990 1119 2350 
          2171 2217 1384 2281 
          2203 2258 2166 2282 
          681 783 622 2230 
          1569 1625 1603 1970 
          2147 2258 2203 2282 
          1603 1602 2112 1625 
          374 375 373 2262 
          332 769 40 2331 
          1257 1256 1429 2252 
          1874 2323 2184 2384 
          896 2295 905 2345 
          1731 1732 1733 2358 
          1872 1608 1961 1447 
          1159 1157 1158 2335 
          1127 1110 1109 2255 
          1927 611 1929 2190 
          2156 2179 2168 2255 
          2233 2235 2214 2336 
          1664 1666 1937 2349 
          1640 1483 1763 1630 
          588 2277 718 2316 
          149 767 331 2323 
          1510 1509 1537 2217 
          2175 2241 2191 2333 
          1421 1353 1354 2189 
          2175 2243 2208 2333 
          207 177 115 2228 
          1287 1285 1286 2253 
          1433 1404 1405 2317 
          850 955 1014 2183 
          636 2205 775 2259 
          1377 2178 1426 2253 
          1995 1806 1738 2204 
          103 40 769 2331 
          2026 1793 1800 2239 
          1888 1512 1474 2265 
          984 1096 1099 2379 
          1793 2188 1800 2239 
          2125 2124 1675 2373 
          778 2319 2247 2382 
          850 851 671 2183 
          1707 1624 1584 1606 
          1707 1464 1643 1624 
          1882 1622 1936 1599 
          860 858 859 2389 
          53 82 38 2320 
          1540 1619 1444 2306 
          1061 1166 1219 2268 
          915 261 607 2347 
          1302 1383 1256 2307 
          955 850 848 2365 
          1118 2161 980 2211 
          873 555 568 2388 
          1347 1418 1248 2309 
          1945 1465 1643 1848 
          1636 1465 1848 1508 
          1848 1465 1532 1508 
          382 680 682 2261 
          1482 1498 1631 2254 
          1472 2231 1364 2265 
          600 599 597 2238 
          1643 1997 1847 2182 
          498 646 407 2372 
          1386 1388 1387 2182 
          411 412 409 2222 
          2041 2042 2125 2373 
          406 2030 1915 2284 
          2201 2255 1008 2273 
          965 1084 978 2200 
          38 34 39 2201 
          1536 1485 1484 2321 
          1851 1920 2144 2197 
          1192 2206 1206 2318 
          696 2195 296 2274 
          1263 2221 1309 2304 
          1534 2180 2167 2251 
          970 2244 865 2387 
          2186 2232 2037 2240 
          2069 2257 1674 2289 
          1933 193 1873 2193 
          649 2355 337 2388 
          2011 1980 2098 2281 
          1242 2267 2256 2337 
          2165 2213 2199 2276 
          2104 1674 1810 2289 
          165 171 170 2193 
          2313 2327 2164 2385 
          1296 159 205 2330 
          758 276 222 2380 
          1174 2287 2241 2368 
          598 599 818 2271 
          1417 1341 1342 2272 
          1008 950 1127 2201 
          1932 2114 1930 2240 
          978 1084 1131 2333 
          1058 1211 1163 2375 
          810 379 771 2205 
          716 771 664 2205 
          1459 2281 1457 2397 
          137 2181 157 2228 
          1209 1092 1163 2280 
          54 19 99 2240 
          1103 2258 2166 2270 
          1720 2194 1665 2392 
          120 167 944 2230 
          1370 2237 1368 2354 
          167 169 330 2230 
          1296 2228 159 2330 
          1419 1347 1247 2309 
          531 2308 308 2382 
          707 391 307 2319 
          2160 2205 2150 2371 
          2196 2223 2158 2272 
          1957 2391 1979 2397 
          1419 1349 1347 2309 
          1225 2336 1178 2386 
          2198 2323 125 2341 
          737 2282 756 2293 
          595 548 596 2295 
          1515 1501 1633 2187 
          308 306 307 2319 
          2170 2262 669 2359 
          163 2184 137 2193 
          2177 2194 1904 2370 
          1682 1788 1785 2197 
          264 443 670 2370 
          1766 2187 1769 2213 
          416 385 413 2278 
          595 688 548 2295 
          1380 2203 1415 2321 
          2173 2282 737 2293 
          602 603 604 2291 
          1564 1474 1473 2302 
          1261 1309 1165 2304 
          1418 2193 1352 2228 
          1236 123 1296 2228 
          623 653 624 2230 
          2211 2260 2170 2280 
          278 794 665 2188 
          1932 1669 2114 2240 
          1695 1798 1799 2188 
          1869 1965 1803 2351 
          802 2220 513 2274 
          26 50 48 2189 
          1975 2176 2037 2186 
          1466 1358 1507 2162 
          2206 2225 2155 2318 
          1700 2167 2040 2236 
          177 190 189 2228 
          1136 2196 1041 2292 
          2191 2243 2175 2333 
          989 988 990 2350 
          1515 1514 1501 2187 
          652 651 1989 626 
          380 635 454 2205 
          191 2285 147 2330 
          2152 2212 2157 2288 
          1046 1112 1045 2292 
          1897 1559 2016 1634 
          1840 90 76 2356 
          1467 1507 1508 2162 
          1764 1461 1623 2390 
          2036 1795 1859 2204 
          988 2262 1017 2350 
          1873 171 1871 2193 
          1029 961 854 2170 
          996 2207 994 2344 
          2055 1730 2008 2232 
          784 876 529 920 
          1939 2177 1900 2227 
          784 876 582 529 
          357 512 738 2274 
          1822 2058 2091 2352 
          1083 1122 1079 2386 
          541 912 225 492 
          1881 2076 1797 2187 
          1944 2172 1926 2301 
          2175 2200 2191 2241 
          908 958 1004 2347 
          2122 1571 2072 1629 
          1971 1574 1573 1631 
          1571 1570 2072 1629 
          1570 1571 2072 1572 
          1578 1947 1638 1614 
          2138 1834 1790 2327 
          1398 1286 1426 2253 
          1013 2293 880 2295 
          2163 2208 1280 2231 
          732 840 624 631 
          700 784 920 701 
          784 700 920 528 
          582 876 247 918 
          91 495 527 709 
          607 329 852 2347 
          446 2266 533 2347 
          1734 1933 1934 2381 
          1236 122 189 176 
          1596 2035 1598 1597 
          317 316 727 2259 
          1070 1110 1127 2255 
          1492 2251 1494 2376 
          1428 2354 1366 2390 
          1993 2306 1951 2357 
          1135 178 1204 2330 
          678 618 782 2273 
          987 2169 983 2379 
          1881 1880 2076 2187 
          1966 1846 1967 2182 
          2036 1753 1995 2204 
          749 2012 359 2250 
          1159 1158 1335 2252 
          1097 1099 1096 2379 
          1518 1439 1441 2219 
          1763 2076 1880 2187 
          865 918 878 2387 
          2233 2336 2214 2386 
          163 160 137 2184 
          665 2239 2188 2322 
          1694 1692 1691 2286 
          1126 2207 2161 2318 
          561 497 770 2338 
          1995 1694 1806 2204 
          207 2193 136 2228 
          803 901 861 2314 
          730 2205 636 2259 
          1313 1285 1287 2253 
          584 587 580 2185 
          2193 2306 2064 2381 
          129 209 184 2198 
          2244 2340 694 2396 
          1472 1512 1363 2231 
          282 2235 283 2274 
          907 423 536 692 
          329 928 327 328 
          33 69 32 2348 
          1213 1071 1032 2348 
          32 2179 33 2348 
          252 1748 354 2239 
          1524 1364 1405 2302 
          1836 1452 1835 2246 
          1740 2111 1677 2271 
          756 737 286 2282 
          14 1317 96 2348 
          915 607 261 262 
          1682 1679 2061 2378 
          42 101 21 710 
          2110 593 674 2199 
          1730 1916 2009 2367 
          646 2216 407 2372 
          1943 1853 2091 2248 
          538 2322 2188 2338 
          890 877 920 2200 
          1921 2038 1879 2251 
          1351 1350 1352 2228 
          949 950 1028 2201 
          574 2186 522 2215 
          1924 2016 1558 2346 
          732 516 681 2230 
          646 647 299 2216 
          1694 2149 1864 2286 
          1714 237 349 2218 
          465 466 373 2262 
          2287 2368 1100 2379 
          403 2294 402 2313 
          2118 1891 1888 2163 
          671 423 849 2365 
          458 460 456 2360 
          1070 1069 1071 2179 
          2182 2237 2157 2304 
          1030 2314 902 2394 
          1354 1355 1454 2217 
          959 1101 1005 2210 
          56 62 65 2356 
          2210 2325 1073 2335 
          884 1025 886 2344 
          1642 823 274 480 
          1328 1286 1285 2253 
          725 392 603 2235 
          1221 2255 1154 2377 
          1089 2233 1124 2386 
          2191 2200 978 2333 
          2327 2369 2017 2392 
          2156 2212 2176 2232 
          1986 611 237 2218 
          1820 2329 1821 2352 
          1602 1603 2112 1604 
          1954 2079 2078 2218 
          1326 1302 1301 2307 
          923 224 504 505 
          504 888 700 415 
          2232 2245 2217 2367 
          2171 2281 1758 2367 
          258 438 883 2249 
          613 2186 574 2283 
          437 438 435 2389 
          2148 2221 2162 2349 
          367 390 391 2249 
          1131 2191 978 2333 
          1534 1390 1493 2251 
          1134 96 12 1317 
          72 73 96 1134 
          497 2338 2216 2372 
          1348 1418 1347 2309 
          2279 2300 2216 2372 
          1702 2033 1703 2219 
          704 705 354 2374 
          1217 2258 1186 2337 
          1348 2306 1418 2309 
          1075 1117 948 2293 
          1520 1445 1352 2306 
          602 228 785 2291 
          2233 2235 2151 2316 
          1006 58 829 57 
          1633 2035 1880 1596 
          1379 1435 1411 2254 
          1361 1422 1357 2305 
          267 1718 587 584 
          1857 2165 1856 2286 
          2098 1885 2011 2328 
          864 722 721 2244 
          2236 2305 2167 2376 
          1719 2185 1717 2289 
          1122 2233 2159 2386 
          1276 1277 1278 2203 
          1784 1977 2140 2361 
          2244 2274 2159 2355 
          973 2293 1013 2295 
          400 402 401 2294 
          2216 2279 2153 2300 
          1879 1878 1968 2251 
          1821 1688 1822 2352 
          542 1663 543 2121 
          432 2300 2207 2314 
          975 974 973 2295 
          313 312 532 2372 
          1943 2248 2091 2352 
          968 967 969 2220 
          949 951 950 2201 
          2174 2329 2246 2352 
          702 344 825 2396 
          1767 1768 2032 2213 
          2176 2222 642 2264 
          2213 2276 2178 2286 
          1300 1334 1293 2206 
          210 149 331 2341 
          201 1801 220 473 
          220 201 202 204 
          204 1801 220 201 
          1806 2204 2192 2275 
          51 2240 2156 2320 
          1949 2064 1950 2306 
          191 162 147 2285 
          952 874 1024 2355 
          1397 1396 1395 2192 
          124 125 126 2323 
          1772 1771 1726 2192 
          1397 1528 1396 2192 
          1396 1410 1395 2192 
          2186 2283 613 2324 
          581 740 719 2185 
          662 2283 644 2324 
          976 1021 978 2200 
          1210 1165 1309 2221 
          1443 1504 1621 2357 
          1988 1619 1540 2306 
          1856 2250 1855 2276 
          947 2263 1011 2293 
          1723 2133 1724 2275 
          708 642 645 2283 
          2153 2208 2175 2312 
          1025 992 996 2249 
          2156 2176 2168 2283 
          2152 2255 2183 2325 
          1001 1027 1000 2230 
          2106 1953 2007 2384 
          495 780 287 2290 
          1725 1721 1726 2275 
          905 699 549 929 
          362 785 510 2291 
          929 699 271 554 
          149 2323 331 2341 
          967 2220 968 2295 
          2062 1683 1779 2328 
          2166 2203 2151 2270 
          1594 1628 1946 1563 
          1946 1561 1628 1644 
          506 2284 798 2339 
          1941 1939 1959 2236 
          644 2283 643 2324 
          1947 1638 1613 2342 
          643 2264 234 2324 
          1587 1461 1887 2390 
          1504 1531 1503 2357 
          1001 1036 1113 2326 
          2168 2252 2156 2255 
          1634 1491 1468 2346 
          775 2205 776 2218 
          365 774 366 2249 
          1597 2105 1601 1633 
          1599 2105 1882 1633 
          1633 2035 1597 2105 
          451 2200 416 2366 
          2260 2308 660 2313 
          2251 2298 2236 2376 
          1907 2288 2264 2395 
          1914 609 610 266 
          1933 2054 1839 2193 
          932 2230 845 2311 
          1785 1787 1680 2188 
          85 86 52 2290 
          1799 1798 1786 2188 
          1738 1737 2095 2204 
          1234 1201 1208 2270 
          760 420 422 2200 
          1388 1412 1413 2182 
          1784 2117 2045 2212 
          397 417 419 2313 
          1471 1473 1524 2302 
          1177 2243 2214 2296 
          2186 2240 2215 2320 
          2177 2370 441 2382 
          826 677 780 2299 
          916 893 874 2355 
          1126 2161 1064 2318 
          2006 2242 2106 2384 
          1277 1276 1332 2203 
          341 761 760 2387 
          2197 2231 2153 2265 
          2133 1739 1724 2275 
          1550 1549 1551 1835 
          2043 1549 1551 1617 
          1741 2093 1742 2301 
          158 2285 191 2330 
          2079 1954 2106 2242 
          1790 2327 2017 2392 
          1373 1533 1475 2163 
          2097 1891 2118 2163 
          345 1989 651 2324 
          2077 1978 1972 2324 
          155 1709 153 154 
          1588 1632 1697 1607 
          419 403 828 2313 
          1410 2192 1396 2254 
          2164 2209 2157 2288 
          1750 1859 2136 2239 
          1280 2163 1371 2334 
          1883 2141 637 1748 
          1748 2141 351 1661 
          1883 2141 254 637 
          2141 1748 351 637 
          439 440 441 2382 
          995 2207 1093 2394 
          304 2222 302 2266 
          1032 69 71 1213 
          1394 1390 1534 2180 
          32 1213 69 1032 
          1671 749 2012 359 
          2040 2167 1699 2251 
          1641 2216 697 2332 
          322 2002 661 275 
          1270 2231 1174 2287 
          2219 2246 2174 2329 
          2118 1739 2097 2275 
          1437 56 35 2351 
          847 2273 1007 2365 
          234 551 608 2343 
          2159 2244 999 2296 
          434 765 431 2314 
          1803 1965 1585 2351 
          473 519 767 2323 
          74 53 52 2320 
          2002 661 1712 2395 
          397 2313 777 2395 
          593 1912 592 2291 
          360 742 705 2195 
          273 661 552 2395 
          1126 1093 996 2207 
          2073 1810 1674 2257 
          681 2230 827 2261 
          499 2300 2279 2338 
          2031 601 231 2271 
          1262 1312 1412 2304 
          2179 2255 2156 2307 
          248 246 918 741 
          1244 1239 1417 2272 
          644 662 645 2283 
          244 243 638 917 
          2179 2201 38 2320 
          52 2290 74 2320 
          849 243 245 917 
          2145 2184 2007 2384 
          667 2235 696 2274 
          1902 1900 2024 2284 
          1222 2208 1193 2241 
          2190 2226 2218 2229 
          1758 1757 1760 2328 
          1769 1761 1805 2254 
          1859 2204 2136 2239 
          949 2201 1028 2273 
          976 2191 977 2387 
          2150 2160 2154 2223 
          910 654 653 632 
          2017 1791 1790 2224 
          1413 1487 1530 2182 
          16 2215 2186 2240 
          1440 1555 1620 2219 
          1289 1290 1288 2305 
          1770 2134 2003 2254 
          334 338 820 2244 
          1047 1045 1117 2258 
          2174 2267 2219 2329 
          1976 1895 1851 2353 
          1437 1585 35 1639 
          1625 1970 1567 2397 
          2189 2245 61 2351 
          672 2271 2190 2364 
          404 507 408 2339 
          1834 2327 1830 2369 
          56 6 61 2351 
          1741 1842 2041 2301 
          661 2002 321 2343 
          608 321 323 2343 
          973 974 1013 2293 
          178 141 179 1043 
          2162 2182 1966 2392 
          1314 1332 1313 2203 
          767 149 212 2323 
          1300 2206 1423 2317 
          1909 1646 1948 2343 
          1119 990 962 2350 
          982 1018 863 2380 
          566 411 410 2222 
          1371 1406 1373 2163 
          1290 1427 1292 2305 
          433 2314 431 2344 
          1316 1365 1428 2354 
          2161 2247 2155 2318 
          1564 1566 2022 1627 
          2130 1979 2367 2281 
          2175 2200 420 2303 
          316 315 464 2259 
          1087 2233 1089 2270 
          1672 2172 2373 2257 
          576 2290 780 2299 
          2204 2208 2163 2312 
          907 692 536 2347 
          942 1012 941 2160 
          2062 1885 1760 2328 
          1048 2160 942 2310 
          1648 1935 2070 2321 
          943 941 1009 2160 
          2161 2249 2211 2319 
          1665 2349 1664 2392 
          1055 1223 1080 2296 
          1976 1878 1701 2353 
          330 169 516 2230 
          1208 1185 1207 2270 
          456 2234 458 2360 
          972 971 970 2296 
          1062 1060 1121 2268 
          605 914 438 796 
          1451 2246 1453 2248 
          1749 1753 1859 2239 
          52 100 75 2290 
          1377 1304 1284 2253 
          1811 2019 1924 2298 
          2172 1672 2373 2301 
          1640 1662 2003 2254 
          2091 2246 1824 2352 
          43 332 40 2331 
          777 399 693 2313 
          1752 2149 1749 2239 
          1424 1281 1371 2334 
          311 706 388 2300 
          685 2263 225 2360 
          2175 2208 2204 2312 
          825 296 2274 667 
          1725 1479 1517 2275 
          376 2283 2215 2299 
          2183 2255 2168 2299 
          1136 1202 1137 2292 
          745 746 901 927 
          2044 1679 1681 2312 
          374 2262 373 2389 
          797 466 669 2262 
          615 2186 613 2324 
          1590 1635 1492 2346 
          1009 2160 941 2311 
          1197 1198 1196 2214 
          1894 1893 1705 2227 
          1455 1626 1456 2351 
          649 2220 802 2355 
          1635 1922 1494 2251 
          1688 1690 2058 2352 
          2045 2176 1977 2212 
          725 696 283 2235 
          1812 1816 1815 2251 
          51 17 19 2240 
          1214 1038 1145 2326 
          1494 1492 1635 2251 
          2148 2305 2236 2349 
          891 2244 893 2355 
          450 448 822 2222 
          991 1025 884 2249 
          1997 1489 1886 2182 
          498 497 646 2216 
          1041 1039 1115 2234 
          1878 2167 1699 2353 
          792 2260 303 2359 
          1644 1844 2014 2302 
          1163 2280 1058 2375 
          1925 684 545 269 
          1826 2071 1825 2332 
          1207 1185 1184 2258 
          1374 1375 1425 2334 
          1421 2189 1354 2217 
          644 717 614 2324 
          1884 1886 1488 2237 
          1726 1721 1727 2275 
          1512 1472 1474 2265 
          2103 1719 1877 2289 
          838 938 1009 2234 
          2147 2238 2173 2282 
          341 2387 342 2396 
          2155 2216 2206 2372 
          604 739 674 2199 
          2209 2264 2152 2288 
          139 471 109 111 
          1676 231 2120 393 
          622 783 623 2230 
          387 2278 386 2279 
          1870 2146 1868 2356 
          2166 2233 1087 2270 
          947 1117 1045 2293 
          1996 1963 1989 2324 
          767 149 150 212 
          1855 2028 1913 2291 
          2090 2276 1855 2291 
          2120 601 2031 233 
          2031 231 601 2120 
          1565 1613 1564 2022 
          1747 1564 2022 1627 
          1566 1564 2022 1565 
          1768 1769 2084 2213 
          954 2233 2220 2355 
          2158 2226 2196 2272 
          1143 1138 1318 2196 
          193 1839 208 2193 
          487 374 436 2211 
          426 2200 422 2322 
          1200 1328 1285 2253 
          500 499 687 2338 
          312 310 311 2300 
          334 337 338 2355 
          2147 2256 2174 2267 
          1284 2178 1377 2253 
          444 302 445 2266 
          124 153 215 2383 
          1186 2258 1185 2337 
          134 211 132 2048 
          1876 211 132 124 
          211 1876 1709 124 
          67 1337 1414 68 
          80 1414 68 67 
          6 1337 1355 1511 
          1186 1217 1184 2258 
          1954 655 349 1990 
          630 655 1990 656 
          2175 2191 2149 2243 
          1183 1176 1220 2243 
          1952 655 1990 630 
          1133 196 197 930 
          1133 196 216 197 
          1042 196 930 143 
          906 973 880 2295 
          1419 1344 1345 2158 
          1041 2292 2196 2310 
          2170 2260 2210 2280 
          1238 1325 1295 2256 
          1899 1642 823 2385 
          427 429 818 2238 
          1311 1258 1260 2393 
          85 2201 60 2290 
          985 1015 872 2366 
          922 616 628 867 
          281 738 512 2274 
          616 922 869 867 
          919 864 2244 722 
          1909 2264 1646 2343 
          571 573 791 2198 
          878 918 582 246 
          1436 1314 1287 2253 
          205 1135 1296 2330 
          603 2199 604 2291 
          2281 2391 2217 2397 
          2106 2006 2229 2242 
          2101 1669 1932 2245 
          1669 2101 1840 2245 
          838 2234 1009 2311 
          1776 2084 1805 2254 
          908 1004 853 2347 
          1769 2178 2084 2213 
          427 2238 315 2259 
          384 2205 800 2242 
          2251 2346 1813 2376 
          1123 971 1054 2296 
          1770 1772 1775 2286 
          1511 8 6 1337 
          1961 1608 1802 1544 
          1707 1489 1605 1886 
          1618 1836 1452 1835 
          389 367 475 2247 
          993 1020 980 2249 
          2019 2298 1813 2346 
          587 544 1716 684 
          920 877 528 2200 
          1213 1151 1071 2348 
          1756 1690 2063 2226 
          883 884 882 2249 
          1561 1562 1644 1563 
          1261 1165 1164 2375 
          158 159 157 2181 
          1996 1989 1974 2324 
          733 2323 619 2384 
          2162 2221 2182 2392 
          438 437 796 858 
          1979 2130 2367 1917 
          2164 2221 2148 2392 
          1462 1461 1587 2390 
          860 437 438 858 
          578 2172 584 2185 
          541 831 912 226 
          448 2222 2209 2264 
          227 831 225 226 
          1675 2124 1673 2373 
          1214 1147 1149 2181 
          106 16 40 2331 
          520 571 521 2341 
          1212 1330 1164 2375 
          2182 2224 1985 2392 
          165 2088 144 174 
          1476 1475 1533 2163 
          2225 2236 2148 2305 
          2101 2245 2146 2356 
          1475 1535 1372 2163 
          1711 2088 174 146 
          144 2088 146 174 
          1711 2088 1872 174 
          165 2088 1872 144 
          2335 2354 1315 2393 
          1136 2196 1215 2310 
          952 2355 2220 2388 
          519 2323 520 2341 
          1830 2369 2327 2385 
          1513 1698 1891 1888 
          1906 2029 1914 2370 
          1904 2143 1905 2194 
          1434 2182 1412 2237 
          1421 2217 1383 2307 
          893 2244 997 2355 
          240 837 897 2311 
          475 367 370 2247 
          1746 2257 1673 2373 
          48 2189 2179 2320 
          2020 1606 1605 1707 
          1606 2020 1605 1607 
          2020 1632 1605 1607 
          1226 2225 1191 2318 
          1070 1151 1229 2377 
          1362 1271 1433 2231 
          2155 2207 2206 2318 
          1156 2252 1221 2377 
          1711 1873 171 1871 
          1873 1711 171 2046 
          591 2277 596 2295 
          1087 2166 968 2233 
          423 424 907 849 
          2197 2362 2265 2378 
          888 528 415 2366 
          1864 1752 1857 2250 
          258 924 882 805 
          482 924 366 805 
          2063 1819 2108 2226 
          1977 2212 2176 2361 
          1254 1253 1353 2189 
          142 2326 143 2330 
          14 13 12 1235 
          14 1235 80 13 
          1765 2187 1766 2213 
          30 900 2 467 
          574 522 575 2215 
          900 467 468 218 
          1395 1410 1308 2192 
          627 900 467 468 
          1872 1447 2064 2193 
          816 388 759 2278 
          83 54 84 2245 
          1660 2276 2199 2289 
          684 1718 587 1925 
          1051 1053 1052 2325 
          684 1718 1716 587 
          396 449 448 2264 
          1172 2287 1174 2368 
          1710 37 65 2086 
          1710 66 62 65 
          1424 1371 1372 2334 
          2199 2235 2165 2291 
          407 2216 405 2284 
          2157 2209 2152 2288 
          296 2274 2195 2340 
          1706 2227 1700 2236 
          1625 1602 2112 2397 
          1316 1315 1335 2354 
          2153 2287 2169 2368 
          811 2303 298 2374 
          2152 2210 2157 2335 
          2078 2142 1645 2218 
          860 438 437 2389 
          1829 2216 2071 2353 
          1449 1617 1450 2246 
          966 964 1015 2366 
          1232 2375 2210 2393 
          1509 2217 1510 2397 
          1918 2315 1731 2358 
          1588 2025 1587 1589 
          1764 1589 1587 2025 
          928 908 853 2347 
          1652 2127 1577 2342 
          2164 2260 2209 2313 
          535 446 533 2347 
          1922 1896 1615 2015 
          1615 1896 1635 1616 
          1590 1896 1651 1591 
          610 795 2029 744 
          495 22 79 78 
          109 139 766 471 
          219 109 111 110 
          1011 946 947 2293 
          489 370 369 2207 
          132 1668 2102 2184 
          1200 1227 1180 2336 
          1210 1309 1329 2221 
          918 878 582 876 
          1154 2255 1110 2377 
          986 1066 1130 2368 
          1713 1540 1621 2357 
          1674 2257 1810 2289 
          1390 2167 1534 2180 
          1225 1179 1178 2336 
          884 886 924 2344 
          33 38 82 2179 
          2025 1632 1587 1697 
          803 861 434 2314 
          1237 2196 1137 2256 
          2162 2305 2148 2349 
          924 2249 884 2344 
          1704 2219 2070 2321 
          171 192 170 2193 
          1573 1774 1498 1497 
          2020 1632 1697 1605 
          1488 1632 1605 1697 
          2020 1632 1607 1697 
          1697 1462 1488 1632 
          2025 1632 1588 1587 
          2226 2352 2158 2358 
          1410 2178 1283 2214 
          1259 1368 1260 2393 
          2095 2204 1737 2312 
          1756 1754 1690 2226 
          1278 1241 1321 2337 
          2227 2284 2155 2339 
          1142 1215 1143 2310 
          2265 2312 2153 2378 
          980 979 981 2211 
          1559 2016 1558 1560 
          833 1011 935 2263 
          263 855 806 915 
          1904 2194 1905 2294 
          267 586 601 1926 
          2111 586 1926 601 
          1417 1342 1346 2272 
          593 1663 2110 674 
          2238 2259 2196 2292 
          542 593 1912 592 
          623 347 843 2311 
          1663 593 542 674 
          1731 1918 1735 2315 
          1683 2237 1777 2328 
          2171 2237 2212 2328 
          1101 1132 1005 2210 
          1501 1500 1596 2187 
          89 75 20 2215 
          2203 2267 2257 2321 
          2176 2186 1973 2324 
          620 2242 621 2384 
          87 34 107 1111 
          1730 2232 1916 2367 
          2294 2313 2164 2385 
          33 82 49 2179 
          1216 2223 1049 2310 
          1469 2180 1505 2302 
          2262 2350 988 2389 
          2211 2359 375 2389 
          1011 2263 946 2293 
          1459 1458 1567 2397 
          7 8 1337 6 
          354 742 252 2239 
          450 642 708 2222 
          649 337 568 2388 
          58 333 60 2201 
          1581 1662 1579 1631 
          1640 1581 1579 1580 
          2088 114 144 146 
          1538 114 112 1802 
          795 1914 609 610 
          1914 264 266 1650 
          795 1914 610 2029 
          350 1990 655 656 
          1702 2219 1704 2321 
          278 1994 279 1695 
          1994 278 279 695 
          1938 2162 1966 2349 
          26 98 81 2189 
          801 278 280 1695 
          563 2238 762 2282 
          2165 2178 2151 2213 
          1481 1526 1378 2254 
          49 48 50 2348 
          494 756 493 2293 
          179 141 216 1043 
          361 2195 363 2250 
          2155 2227 2177 2236 
          1159 1161 1218 2335 
          1221 1156 1158 2252 
          432 2207 369 2314 
          981 1060 980 2211 
          2196 2223 1143 2310 
          432 706 310 2300 
          567 411 566 2183 
          1555 1556 1998 1557 
          1170 2206 1299 2317 
          2019 1811 1813 2298 
          619 621 733 2384 
          2214 2233 2159 2235 
          1274 1273 1297 2334 
          1656 2216 1827 2227 
          1742 1740 1741 2301 
          293 704 294 2374 
          690 603 392 2235 
          761 2303 760 2387 
          1874 1709 1876 2323 
          978 2200 1084 2333 
          2169 2368 2287 2379 
          612 897 240 837 
          347 897 240 242 
          612 897 241 240 
          1642 1831 2021 2385 
          804 698 292 2322 
          1458 1459 1457 2397 
          1097 2287 1100 2379 
          847 848 846 2365 
          397 2260 417 2313 
          450 822 642 2222 
          2157 2221 2182 2304 
          1675 1741 2125 2373 
          2208 2231 2153 2287 
          1649 1970 1957 2397 
          1484 2219 1521 2321 
          120 945 143 2269 
          258 924 884 882 
          1671 359 2012 2250 
          1622 1600 1936 1599 
          1648 1600 1622 1557 
          1224 1195 1182 2333 
          776 2205 716 2218 
          187 288 129 131 
          129 288 711 130 
          2056 1960 1812 2236 
          303 302 444 2266 
          2210 2260 2170 2266 
          2109 2132 1756 2229 
          420 761 509 2303 
          1183 1182 1333 2243 
          1780 1985 2059 2182 
          1496 1528 1497 2254 
          1877 1717 2104 2289 
          1415 1382 1380 2321 
          859 1016 979 2389 
          89 2215 18 2320 
          440 531 308 2382 
          1875 2323 1964 2383 
          2169 2314 2207 2300 
          2155 2247 2207 2318 
          1743 2082 2085 2321 
          1429 2307 2171 2354 
          1426 2178 1378 2253 
          2242 2323 733 2384 
          2183 2266 2152 2325 
          343 342 344 2396 
          297 296 696 2195 
          844 932 845 2311 
          371 903 484 2262 
          2166 2282 2258 2293 
          1479 2192 1516 2275 
          910 841 624 2230 
          594 2220 649 2388 
          2097 1739 2133 2275 
          1402 2219 1518 2246 
          2223 2310 2154 2326 
          128 208 132 2184 
          1453 1836 1618 1981 
          40 16 43 2331 
          44 106 104 2331 
          2177 2225 2148 2247 
          1227 2336 2270 2386 
          2224 2288 1792 2327 
          2351 2391 1955 2397 
          838 836 938 2360 
          982 2379 2314 2394 
          864 919 2244 866 
          1142 1216 1050 2310 
          2167 2236 1700 2353 
          2217 2367 2010 2391 
          1462 1697 1587 1632 
          1897 1559 1634 1592 
          446 2266 2170 2359 
          1920 2197 1895 2353 
          1002 994 995 2394 
          2078 2080 2142 2218 
          2091 2248 2246 2352 
          888 889 890 2366 
          898 844 925 2311 
          1041 2196 1136 2310 
          882 258 883 2249 
          1338 1340 1339 2267 
          1345 1349 1419 2158 
          999 1123 1078 2296 
          1078 2159 999 2296 
          1998 2000 1555 2219 
          137 2193 2181 2228 
          441 440 476 2382 
          1297 1273 1176 2243 
          964 1021 890 2200 
          1209 1165 1210 2280 
          888 701 700 920 
          1802 1608 112 1538 
          1608 1961 1447 1543 
          2153 2241 2208 2287 
          453 380 2371 557 
          2030 406 539 2284 
          1656 539 405 2284 
          1028 2201 950 2273 
          1069 950 951 2201 
          1874 2066 1875 2323 
          2172 2238 2147 2282 
          69 73 1134 2348 
          1249 1150 1149 2181 
          1139 2292 2258 2337 
          69 72 71 1134 
          1422 1356 1357 2305 
          308 2319 307 2382 
          1701 1700 1705 2353 
          1429 2252 1256 2307 
          1954 2242 620 2384 
          619 2323 629 2384 
          1156 1255 1158 2252 
          408 2247 659 2372 
          532 408 659 2372 
          1776 1770 1775 2286 
          1910 2343 2002 2395 
          861 913 276 2380 
          1736 2358 2315 2381 
          1892 1564 1747 2302 
          2149 2165 2159 2195 
          596 2166 590 2316 
          1706 1959 1939 2236 
          1294 1325 1203 2256 
          1432 1272 1362 2231 
          126 128 124 2184 
          537 2322 538 2338 
          1322 1266 1289 2363 
          1265 1356 1266 2363 
          1471 1469 1470 2302 
          279 695 353 1994 
          1977 1975 1972 2176 
          2260 2308 2211 2359 
          278 1994 1800 695 
          278 1994 1695 1800 
          1710 37 66 65 
          2191 2303 2149 2340 
          420 421 422 2175 
          332 2215 522 2331 
          825 296 702 2340 
          1749 1859 1750 2239 
          399 400 398 2313 
          855 857 903 2262 
          2237 2252 2212 2335 
          1860 1579 1640 1630 
          1483 1579 1630 1640 
          1860 1579 1580 1640 
          1221 1053 1154 2255 
          922 846 788 2365 
          1524 1473 1472 2302 
          434 431 433 2314 
          2262 2350 2211 2359 
          2026 2136 1793 2239 
          1986 1645 2142 2218 
          1695 1799 1991 787 
          1670 1799 787 1991 
          1355 6 1511 2189 
          28 2189 48 2320 
          511 510 230 1667 
          2012 510 511 1667 
          1911 510 228 1667 
          736 794 786 2188 
          1054 971 972 2296 
          2158 2315 2150 2358 
          1903 2294 1905 2369 
          2010 2245 2217 2351 
          1620 2000 1999 2219 
          2070 2000 1998 2219 
          83 2245 84 2356 
          495 91 527 2290 
          1849 2144 1682 2362 
          1574 1631 1662 1581 
          663 800 572 2242 
          1147 2223 1246 2309 
          1667 2250 510 2291 
          963 1005 1132 2170 
          423 907 851 849 
          536 907 908 851 
          1217 1076 1184 2258 
          2221 2268 2148 2363 
          344 342 356 2396 
          1384 1367 1429 2171 
          368 433 431 2344 
          2262 2359 2211 2389 
          1361 1523 1490 2376 
          1215 2196 1143 2310 
          1002 1003 1030 2394 
          391 763 764 2249 
          1187 1226 1064 2225 
          35 56 65 2351 
          1478 1479 1725 2192 
          372 2262 484 2389 
          727 2259 2234 2297 
          887 927 885 2344 
          795 609 1914 2370 
          1660 1658 1659 2276 
          2220 2295 967 2345 
          442 439 443 2370 
          169 195 200 518 
          2151 2233 2166 2270 
          496 209 195 187 
          1087 2220 969 2233 
          699 554 905 553 
          699 929 271 270 
          554 699 905 929 
          929 699 549 270 
          330 169 172 173 
          2181 2184 2154 2223 
          1702 2321 2202 2329 
          644 643 717 2324 
          2118 2312 2163 2378 
          1460 1366 1522 2390 
          1140 1141 1139 2337 
          595 2220 689 2345 
          1647 1854 2051 2357 
          1651 2018 1896 2346 
          2167 2305 1427 2376 
          2102 2145 1876 2184 
          955 2183 850 2365 
          1801 1964 629 2383 
          956 955 957 2183 
          1077 1103 1104 2258 
          1367 2354 2171 2390 
          1681 1737 1739 2312 
          1156 1301 1255 2307 
          2167 2180 1878 2251 
          1611 1576 1577 2127 
          1722 1611 1612 2127 
          424 423 907 692 
          423 424 849 245 
          964 889 1015 2366 
          2264 2343 1907 2395 
          1735 2184 2054 2315 
          396 2209 397 2395 
          2177 2247 2148 2382 
          2308 2319 308 2382 
          1023 971 999 2244 
          1423 2180 1392 2317 
          889 872 1015 2366 
          234 2264 551 2343 
          1985 1780 2126 2224 
          962 2170 1119 2350 
          840 624 632 910 
          842 631 899 840 
          472 840 899 631 
          624 840 841 910 
          632 840 472 631 
          2071 2332 1920 2353 
          205 123 159 2228 
          1296 205 159 2228 
          307 391 390 2319 
          1471 1470 1561 2302 
          2154 2242 2198 2261 
          492 912 225 2263 
          855 915 856 2262 
          2156 2189 28 2320 
          573 2198 383 2261 
          1465 1464 1643 2182 
          1510 2217 1537 2351 
          1703 1704 1702 2219 
          65 2086 35 2351 
          765 2300 432 2314 
          366 924 885 2344 
          2176 2212 2156 2252 
          1976 2197 1851 2362 
          1700 2227 1705 2353 
          1699 1816 2040 2251 
          299 1827 1898 1656 
          301 1656 539 299 
          1656 301 539 2030 
          2169 2278 2241 2368 
          2154 2184 2181 2285 
          189 1236 1403 2228 
          374 2211 375 2389 
          2038 1815 2116 2251 
          2151 2185 2166 2316 
          973 1026 975 2295 
          1484 1521 1381 2321 
          2154 2160 2150 2371 
          2221 2280 1165 2304 
          1343 1401 1402 2272 
          298 2195 705 2374 
          849 850 671 2365 
          1751 1749 1748 2239 
          463 429 461 2190 
          1167 1210 1329 2268 
        </DataArray>
        <DataArray type="Int64" Name="offsets" format="ascii">
          4 8 12 16 20 24 28 32 36 40 44 48 52 56 60 64 68 72 76 80 84 88 92 96 100 104 108 112 116 120 124 128 132 136 140 144 148 152 156 160 164 168 172 176 180 184 188 192 196 200 204 208 212 216 220 224 228 232 236 240 244 248 252 256 260 264 268 272 276 280 284 288 292 296 300 304 308 312 316 320 324 328 332 336 340 344 348 352 356 360 364 368 372 376 380 384 388 392 396 400 404 408 412 416 420 424 428 432 436 440 444 448 452 456 460 464 468 472 476 480 484 488 492 496 500 504 508 512 516 520 524 528 532 536 540 544 548 552 556 560 564 568 572 576 580 584 588 592 596 600 604 608 612 616 620 624 628 632 636 640 644 648 652 656 660 664 668 672 676 680 684 688 692 696 700 704 708 712 716 720 724 728 732 736 740 744 748 752 756 760 764 768 772 776 780 784 788 792 796 800 804 808 812 816 820 824 828 832 836 840 844 848 852 856 860 864 868 872 876 880 884 888 892 896 900 904 908 912 916 920 924 928 932 936 940 944 948 952 956 960 964 968 972 976 980 984 988 992 996 1000 1004 1008 1012 1016 1020 1024 1028 1032 1036 1040 1044 1048 1052 1056 1060 1064 1068 1072 1076 1080 1084 1088 1092 1096 1100 1104 1108 1112 1116 1120 1124 1128 1132 1136 1140 1144 1148 1152 1156 1160 1164 1168 1172 1176 1180 1184 1188 1192 1196 1200 1204 1208 1212 1216 1220 1224 1228 1232 1236 1240 1244 1248 1252 1256 1260 1264 1268 1272 1276 1280 1284 1288 1292 1296 1300 1304 1308 1312 1316 1320 1324 1328 1332 1336 1340 1344 1348 1352 1356 1360 1364 1368 1372 1376 1380 1384 1388 1392 1396 1400 1404 1408 1412 1416 1420 1424 1428 1432 1436 1440 1444 1448 1452 1456 1460 1464 1468 1472 1476 1480 1484 1488 1492 1496 1500 1504 1508 1512 1516 1520 1524 1528 1532 1536 1540 1544 1548 1552 1556 1560 1564 1568 1572 1576 1580 1584 1588 1592 1596 1600 1604 1608 1612 1616 1620 1624 1628 1632 1636 1640 1644 1648 1652 1656 1660 1664 1668 1672 1676 1680 1684 1688 1692 1696 1700 1704 1708 1712 1716 1720 1724 1728 1732 1736 1740 1744 1748 1752 1756 1760 1764 1768 1772 1776 1780 1784 1788 1792 1796 1800 1804 1808 1812 1816 1820 1824 1828 1832 1836 1840 1844 1848 1852 1856 1860 1864 1868 1872 1876 1880 1884 1888 1892 1896 1900 1904 1908 1912 1916 1920 1924 1928 1932 1936 1940 1944 1948 1952 1956 1960 1964 1968 1972 1976 1980 1984 1988 1992 1996 2000 2004 2008 2012 2016 2020 2024 2028 2032 2036 2040 2044 2048 2052 2056 2060 2064 2068 2072 2076 2080 2084 2088 2092 2096 2100 2104 2108 2112 2116 2120 2124 2128 2132 2136 2140 2144 2148 2152 2156 2160 2164 2168 2172 2176 2180 2184 2188 2192 2196 2200 2204 2208 2212 2216 2220 2224 2228 2232 2236 2240 2244 2248 2252 2256 2260 2264 2268 2272 2276 2280 2284 2288 2292 2296 2300 2304 2308 2312 2316 2320 2324 2328 2332 2336 2340 2344 2348 2352 2356 2360 2364 2368 2372 2376 2380 2384 2388 2392 2396 2400 2404 2408 2412 2416 2420 2424 2428 2432 2436 2440 2444 2448 2452 2456 2460 2464 2468 2472 2476 2480 2484 2488 2492 2496 2500 2504 2508 2512 2516 2520 2524 2528 2532 2536 2540 2544 2548 2552 2556 2560 2564 2568 2572 2576 2580 2584 2588 2592 2596 2600 2604 2608 2612 2616 2620 2624 2628 2632 2636 2640 2644 2648 2652 2656 2660 2664 2668 2672 2676 2680 2684 2688 2692 2696 2700 2704 2708 2712 2716 2720 2724 2728 2732 2736 2740 2744 2748 2752 2756 2760 2764 2768 2772 2776 2780 2784 2788 2792 2796 2800 2804 2808 2812 2816 2820 2824 2828 2832 2836 2840 2844 2848 2852 2856 2860 2864 2868 2872 2876 2880 2884 2888 2892 2896 2900 2904 2908 2912 2916 2920 2924 2928 2932 2936 2940 2944 2948 2952 2956 2960 2964 2968 2972 2976 2980 2984 2988 2992 2996 3000 3004 3008 3012 3016 3020 3024 3028 3032 3036 3040 3044 3048 3052 3056 3060 3064 3068 3072 3076 3080 3084 3088 3092 3096 3100 3104 3108 3112 3116 3120 3124 3128 3132 3136 3140 3144 3148 3152 3156 3160 3164 3168 3172 3176 3180 3184 3188 3192 3196 3200 3204 3208 3212 3216 3220 3224 3228 3232 3236 3240 3244 3248 3252 3256 3260 3264 3268 3272 3276 3280 3284 3288 3292 3296 3300 3304 3308 3312 3316 3320 3324 3328 3332 3336 3340 3344 3348 3352 3356 3360 3364 3368 3372 3376 3380 3384 3388 3392 3396 3400 3404 3408 3412 3416 3420 3424 3428 3432 3436 3440 3444 3448 3452 3456 3460 3464 3468 3472 3476 3480 3484 3488 3492 3496 3500 3504 3508 3512 3516 3520 3524 3528 3532 3536 3540 3544 3548 3552 3556 3560 3564 3568 3572 3576 3580 3584 3588 3592 3596 3600 3604 3608 3612 3616 3620 3624 3628 3632 3636 3640 3644 3648 3652 3656 3660 3664 3668 3672 3676 3680 3684 3688 3692 3696 3700 3704 3708 3712 3716 3720 3724 3728 3732 3736 3740 3744 3748 3752 3756 3760 3764 3768 3772 3776 3780 3784 3788 3792 3796 3800 3804 3808 3812 3816 3820 3824 3828 3832 3836 3840 3844 3848 3852 3856 3860 3864 3868 3872 3876 3880 3884 3888 3892 3896 3900 3904 3908 3912 3916 3920 3924 3928 3932 3936 3940 3944 3948 3952 3956 3960 3964 3968 3972 3976 3980 3984 3988 3992 3996 4000 4004 4008 4012 4016 4020 4024 4028 4032 4036 4040 4044 4048 4052 4056 4060 4064 4068 4072 4076 4080 4084 4088 4092 4096 4100 4104 4108 4112 4116 4120 4124 4128 4132 4136 4140 4144 4148 4152 4156 4160 4164 4168 4172 4176 4180 4184 4188 4192 4196 4200 4204 4208 4212 4216 4220 4224 4228 4232 4236 4240 4244 4248 4252 4256 4260 4264 4268 4272 4276 4280 4284 4288 4292 4296 4300 4304 4308 4312 4316 4320 4324 4328 4332 4336 4340 4344 4348 4352 4356 4360 4364 4368 4372 4376 4380 4384 4388 4392 4396 4400 4404 4408 4412 4416 4420 4424 4428 4432 4436 4440 4444 4448 4452 4456 4460 4464 4468 4472 4476 4480 4484 4488 4492 4496 4500 4504 4508 4512 4516 4520 4524 4528 4532 4536 4540 4544 4548 4552 4556 4560 4564 4568 4572 4576 4580 4584 4588 4592 4596 4600 4604 4608 4612 4616 4620 4624 4628 4632 4636 4640 4644 4648 4652 4656 4660 4664 4668 4672 4676 4680 4684 4688 4692 4696 4700 4704 4708 4712 4716 4720 4724 4728 4732 4736 4740 4744 4748 4752 4756 4760 4764 4768 4772 4776 4780 4784 4788 4792 4796 4800 4804 4808 4812 4816 4820 4824 4828 4832 4836 4840 4844 4848 4852 4856 4860 4864 4868 4872 4876 4880 4884 4888 4892 4896 4900 4904 4908 4912 4916 4920 4924 4928 4932 4936 4940 4944 4948 4952 4956 4960 4964 4968 4972 4976 4980 4984 4988 4992 4996 5000 5004 5008 5012 5016 5020 5024 5028 5032 5036 5040 5044 5048 5052 5056 5060 5064 5068 5072 5076 5080 5084 5088 5092 5096 5100 5104 5108 5112 5116 5120 5124 5128 5132 5136 5140 5144 5148 5152 5156 5160 5164 5168 5172 5176 5180 5184 5188 5192 5196 5200 5204 5208 5212 5216 5220 5224 5228 5232 5236 5240 5244 5248 5252 5256 5260 5264 5268 5272 5276 5280 5284 5288 5292 5296 5300 5304 5308 5312 5316 5320 5324 5328 5332 5336 5340 5344 5348 5352 5356 5360 5364 5368 5372 5376 5380 5384 5388 5392 5396 5400 5404 5408 5412 5416 5420 5424 5428 5432 5436 5440 5444 5448 5452 5456 5460 5464 5468 5472 5476 5480 5484 5488 5492 5496 5500 5504 5508 5512 5516 5520 5524 5528 5532 5536 5540 5544 5548 5552 5556 5560 5564 5568 5572 5576 5580 5584 5588 5592 5596 5600 5604 5608 5612 5616 5620 5624 5628 5632 5636 5640 5644 5648 5652 5656 5660 5664 5668 5672 5676 5680 5684 5688 5692 5696 5700 5704 5708 5712 5716 5720 5724 5728 5732 5736 5740 5744 5748 5752 5756 5760 5764 5768 5772 5776 5780 5784 5788 5792 5796 5800 5804 5808 5812 5816 5820 5824 5828 5832 5836 5840 5844 5848 5852 5856 5860 5864 5868 5872 5876 5880 5884 5888 5892 5896 5900 5904 5908 5912 5916 5920 5924 5928 5932 5936 5940 5944 5948 5952 5956 5960 5964 5968 5972 5976 5980 5984 5988 5992 5996 6000 6004 6008 6012 6016 6020 6024 6028 6032 6036 6040 6044 6048 6052 6056 6060 6064 6068 6072 6076 6080 6084 6088 6092 6096 6100 6104 6108 6112 6116 6120 6124 6128 6132 6136 6140 6144 6148 6152 6156 6160 6164 6168 6172 6176 6180 6184 6188 6192 6196 6200 6204 6208 6212 6216 6220 6224 6228 6232 6236 6240 6244 6248 6252 6256 6260 6264 6268 6272 6276 6280 6284 6288 6292 6296 6300 6304 6308 6312 6316 6320 6324 6328 6332 6336 6340 6344 6348 6352 6356 6360 6364 6368 6372 6376 6380 6384 6388 6392 6396 6400 6404 6408 6412 6416 6420 6424 6428 6432 6436 6440 6444 6448 6452 6456 6460 6464 6468 6472 6476 6480 6484 6488 6492 6496 6500 6504 6508 6512 6516 6520 6524 6528 6532 6536 6540 6544 6548 6552 6556 6560 6564 6568 6572 6576 6580 6584 6588 6592 6596 6600 6604 6608 6612 6616 6620 6624 6628 6632 6636 6640 6644 6648 6652 6656 6660 6664 6668 6672 6676 6680 6684 6688 6692 6696 6700 6704 6708 6712 6716 6720 6724 6728 6732 6736 6740 6744 6748 6752 6756 6760 6764 6768 6772 6776 6780 6784 6788 6792 6796 6800 6804 6808 6812 6816 6820 6824 6828 6832 6836 6840 6844 6848 6852 6856 6860 6864 6868 6872 6876 6880 6884 6888 6892 6896 6900 6904 6908 6912 6916 6920 6924 6928 6932 6936 6940 6944 6948 6952 6956 6960 6964 6968 6972 6976 6980 6984 6988 6992 6996 7000 7004 7008 7012 7016 7020 7024 7028 7032 7036 7040 7044 7048 7052 7056 7060 7064 7068 7072 7076 7080 7084 7088 7092 7096 7100 7104 7108 7112 7116 7120 7124 7128 7132 7136 7140 7144 7148 7152 7156 7160 7164 7168 7172 7176 7180 7184 7188 7192 7196 7200 7204 7208 7212 7216 7220 7224 7228 7232 7236 7240 7244 7248 7252 7256 7260 7264 7268 7272 7276 7280 7284 7288 7292 7296 7300 7304 7308 7312 7316 7320 7324 7328 7332 7336 7340 7344 7348 7352 7356 7360 7364 7368 7372 7376 7380 7384 7388 7392 7396 7400 7404 7408 7412 7416 7420 7424 7428 7432 7436 7440 7444 7448 7452 7456 7460 7464 7468 7472 7476 7480 7484 7488 7492 7496 7500 7504 7508 7512 7516 7520 7524 7528 7532 7536 7540 7544 7548 7552 7556 7560 7564 7568 7572 7576 7580 7584 7588 7592 7596 7600 7604 7608 7612 7616 7620 7624 7628 7632 7636 7640 7644 7648 7652 7656 7660 7664 7668 7672 7676 7680 7684 7688 7692 7696 7700 7704 7708 7712 7716 7720 7724 7728 7732 7736 7740 7744 7748 7752 7756 7760 7764 7768 7772 7776 7780 7784 7788 7792 7796 7800 7804 7808 7812 7816 7820 7824 7828 7832 7836 7840 7844 7848 7852 7856 7860 7864 7868 7872 7876 7880 7884 7888 7892 7896 7900 7904 7908 7912 7916 7920 7924 7928 7932 7936 7940 7944 7948 7952 7956 7960 7964 7968 7972 7976 7980 7984 7988 7992 7996 8000 8004 8008 8012 8016 8020 8024 8028 8032 8036 8040 8044 8048 8052 8056 8060 8064 8068 8072 8076 8080 8084 8088 8092 8096 8100 8104 8108 8112 8116 8120 8124 8128 8132 8136 8140 8144 8148 8152 8156 8160 8164 8168 8172 8176 8180 8184 8188 8192 8196 8200 8204 8208 8212 8216 8220 8224 8228 8232 8236 8240 8244 8248 8252 8256 8260 8264 8268 8272 8276 8280 8284 8288 8292 8296 8300 8304 8308 8312 8316 8320 8324 8328 8332 8336 8340 8344 8348 8352 8356 8360 8364 8368 8372 8376 8380 8384 8388 8392 8396 8400 8404 8408 8412 8416 8420 8424 8428 8432 8436 8440 8444 8448 8452 8456 8460 8464 8468 8472 8476 8480 8484 8488 8492 8496 8500 8504 8508 8512 8516 8520 8524 8528 8532 8536 8540 8544 8548 8552 8556 8560 8564 8568 8572 8576 8580 8584 8588 8592 8596 8600 8604 8608 8612 8616 8620 8624 8628 8632 8636 8640 8644 8648 8652 8656 8660 8664 8668 8672 8676 8680 8684 8688 8692 8696 8700 8704 8708 8712 8716 8720 8724 8728 8732 8736 8740 8744 8748 8752 8756 8760 8764 8768 8772 8776 8780 8784 8788 8792 8796 8800 8804 8808 8812 8816 8820 8824 8828 8832 8836 8840 8844 8848 8852 8856 8860 8864 8868 8872 8876 8880 8884 8888 8892 8896 8900 8904 8908 8912 8916 8920 8924 8928 8932 8936 8940 8944 8948 8952 8956 8960 8964 8968 8972 8976 8980 8984 8988 8992 8996 9000 9004 9008 9012 9016 9020 9024 9028 9032 9036 9040 9044 9048 9052 9056 9060 9064 9068 9072 9076 9080 9084 9088 9092 9096 9100 9104 9108 9112 9116 9120 9124 9128 9132 9136 9140 9144 9148 9152 9156 9160 9164 9168 9172 9176 9180 9184 9188 9192 9196 9200 9204 9208 9212 9216 9220 9224 9228 9232 9236 9240 9244 9248 9252 9256 9260 9264 9268 9272 9276 9280 9284 9288 9292 9296 9300 9304 9308 9312 9316 9320 9324 9328 9332 9336 9340 9344 9348 9352 9356 9360 9364 9368 9372 9376 9380 9384 9388 9392 9396 9400 9404 9408 9412 9416 9420 9424 9428 9432 9436 9440 9444 9448 9452 9456 9460 9464 9468 9472 9476 9480 9484 9488 9492 9496 9500 9504 9508 9512 9516 9520 9524 9528 9532 9536 9540 9544 9548 9552 9556 9560 9564 9568 9572 9576 9580 9584 9588 9592 9596 9600 9604 9608 9612 9616 9620 9624 9628 9632 9636 9640 9644 9648 9652 9656 9660 9664 9668 9672 9676 9680 9684 9688 9692 9696 9700 9704 9708 9712 9716 9720 9724 9728 9732 9736 9740 9744 9748 9752 9756 9760 9764 9768 9772 9776 9780 9784 9788 9792 9796 9800 9804 9808 9812 9816 9820 9824 9828 9832 9836 9840 9844 9848 9852 9856 9860 9864 9868 9872 9876 9880 9884 9888 9892 9896 9900 9904 9908 9912 9916 9920 9924 9928 9932 9936 9940 9944 9948 9952 9956 9960 9964 9968 9972 9976 9980 9984 9988 9992 9996 10000 10004 10008 10012 10016 10020 10024 10028 10032 10036 10040 10044 10048 10052 10056 10060 10064 10068 10072 10076 10080 10084 10088 10092 10096 10100 10104 10108 10112 10116 10120 10124 10128 10132 10136 10140 10144 10148 10152 10156 10160 10164 10168 10172 10176 10180 10184 10188 10192 10196 10200 10204 10208 10212 10216 10220 10224 10228 10232 10236 10240 10244 10248 10252 10256 10260 10264 10268 10272 10276 10280 10284 10288 10292 10296 10300 10304 10308 10312 10316 10320 10324 10328 10332 10336 10340 10344 10348 10352 10356 10360 10364 10368 10372 10376 10380 10384 10388 10392 10396 10400 10404 10408 10412 10416 10420 10424 10428 10432 10436 10440 10444 10448 10452 10456 10460 10464 10468 10472 10476 10480 10484 10488 10492 10496 10500 10504 10508 10512 10516 10520 10524 10528 10532 10536 10540 10544 10548 10552 10556 10560 10564 10568 10572 10576 10580 10584 10588 10592 10596 10600 10604 10608 10612 10616 10620 10624 10628 10632 10636 10640 10644 10648 10652 10656 10660 10664 10668 10672 10676 10680 10684 10688 10692 10696 10700 10704 10708 10712 10716 10720 10724 10728 10732 10736 10740 10744 10748 10752 10756 10760 10764 10768 10772 10776 10780 10784 10788 10792 10796 10800 10804 10808 10812 10816 10820 10824 10828 10832 10836 10840 10844 10848 10852 10856 10860 10864 10868 10872 10876 10880 10884 10888 10892 10896 10900 10904 10908 10912 10916 10920 10924 10928 10932 10936 10940 10944 10948 10952 10956 10960 10964 10968 10972 10976 10980 10984 10988 10992 10996 11000 11004 11008 11012 11016 11020 11024 11028 11032 11036 11040 11044 11048 11052 11056 11060 11064 11068 11072 11076 11080 11084 11088 11092 11096 11100 11104 11108 11112 11116 11120 11124 11128 11132 11136 11140 11144 11148 11152 11156 11160 11164 11168 11172 11176 11180 11184 11188 11192 11196 11200 11204 11208 11212 11216 11220 11224 11228 11232 11236 11240 11244 11248 11252 11256 11260 11264 11268 11272 11276 11280 11284 11288 11292 11296 11300 11304 11308 11312 11316 11320 11324 11328 11332 11336 11340 11344 11348 11352 11356 11360 11364 11368 11372 11376 11380 11384 11388 11392 11396 11400 11404 11408 11412 11416 11420 11424 11428 11432 11436 11440 11444 11448 11452 11456 11460 11464 11468 11472 11476 11480 11484 11488 11492 11496 11500 11504 11508 11512 11516 11520 11524 11528 11532 11536 11540 11544 11548 11552 11556 11560 11564 11568 11572 11576 11580 11584 11588 11592 11596 11600 11604 11608 11612 11616 11620 11624 11628 11632 11636 11640 11644 11648 11652 11656 11660 11664 11668 11672 11676 11680 11684 11688 11692 11696 11700 11704 11708 11712 11716 11720 11724 11728 11732 11736 11740 11744 11748 11752 11756 11760 11764 11768 11772 11776 11780 11784 11788 11792 11796 11800 11804 11808 11812 11816 11820 11824 11828 11832 11836 11840 11844 11848 11852 11856 11860 11864 11868 11872 11876 11880 11884 11888 11892 11896 11900 11904 11908 11912 11916 11920 11924 11928 11932 11936 11940 11944 11948 11952 11956 11960 11964 11968 11972 11976 11980 11984 11988 11992 11996 12000 12004 12008 12012 12016 12020 12024 12028 12032 12036 12040 12044 12048 12052 12056 12060 12064 12068 12072 12076 12080 12084 12088 12092 12096 12100 12104 12108 12112 12116 12120 12124 12128 12132 12136 12140 12144 12148 12152 12156 12160 12164 12168 12172 12176 12180 12184 12188 12192 12196 12200 12204 12208 12212 12216 12220 12224 12228 12232 12236 12240 12244 12248 12252 12256 12260 12264 12268 12272 12276 12280 12284 12288 12292 12296 12300 12304 12308 12312 12316 12320 12324 12328 12332 12336 12340 12344 12348 12352 12356 12360 12364 12368 12372 12376 12380 12384 12388 12392 12396 12400 12404 12408 12412 12416 12420 12424 12428 12432 12436 12440 12444 12448 12452 12456 12460 12464 12468 12472 12476 12480 12484 12488 12492 12496 12500 12504 12508 12512 12516 12520 12524 12528 12532 12536 12540 12544 12548 12552 12556 12560 12564 12568 12572 12576 12580 12584 12588 12592 12596 12600 12604 12608 12612 12616 12620 12624 12628 12632 12636 12640 12644 12648 12652 12656 12660 12664 12668 12672 12676 12680 12684 12688 12692 12696 12700 12704 12708 12712 12716 12720 12724 12728 12732 12736 12740 12744 12748 12752 12756 12760 12764 12768 12772 12776 12780 12784 12788 12792 12796 12800 12804 12808 12812 12816 12820 12824 12828 12832 12836 12840 12844 12848 12852 12856 12860 12864 12868 12872 12876 12880 12884 12888 12892 12896 12900 12904 12908 12912 12916 12920 12924 12928 12932 12936 12940 12944 12948 12952 12956 12960 12964 12968 12972 12976 12980 12984 12988 12992 12996 13000 13004 13008 13012 13016 13020 13024 13028 13032 13036 13040 13044 13048 13052 13056 13060 13064 13068 13072 13076 13080 13084 13088 13092 13096 13100 13104 13108 13112 13116 13120 13124 13128 13132 13136 13140 13144 13148 13152 13156 13160 13164 13168 13172 13176 13180 13184 13188 13192 13196 13200 13204 13208 13212 13216 13220 13224 13228 13232 13236 13240 13244 13248 13252 13256 13260 13264 13268 13272 13276 13280 13284 13288 13292 13296 13300 13304 13308 13312 13316 13320 13324 13328 13332 13336 13340 13344 13348 13352 13356 13360 13364 13368 13372 13376 13380 13384 13388 13392 13396 13400 13404 13408 13412 13416 13420 13424 13428 13432 13436 13440 13444 13448 13452 13456 13460 13464 13468 13472 13476 13480 13484 13488 13492 13496 13500 13504 13508 13512 13516 13520 13524 13528 13532 13536 13540 13544 13548 13552 13556 13560 13564 13568 13572 13576 13580 13584 13588 13592 13596 13600 13604 13608 13612 13616 13620 13624 13628 13632 13636 13640 13644 13648 13652 13656 13660 13664 13668 13672 13676 13680 13684 13688 13692 13696 13700 13704 13708 13712 13716 13720 13724 13728 13732 13736 13740 13744 13748 13752 13756 13760 13764 13768 13772 13776 13780 13784 13788 13792 13796 13800 13804 13808 13812 13816 13820 13824 13828 13832 13836 13840 13844 13848 13852 13856 13860 13864 13868 13872 13876 13880 13884 13888 13892 13896 13900 13904 13908 13912 13916 13920 13924 13928 13932 13936 13940 13944 13948 13952 13956 13960 13964 13968 13972 13976 13980 13984 13988 13992 13996 14000 14004 14008 14012 14016 14020 14024 14028 14032 14036 14040 14044 14048 14052 14056 14060 14064 14068 14072 14076 14080 14084 14088 14092 14096 14100 14104 14108 14112 14116 14120 14124 14128 14132 14136 14140 14144 14148 14152 14156 14160 14164 14168 14172 14176 14180 14184 14188 14192 14196 14200 14204 14208 14212 14216 14220 14224 14228 14232 14236 14240 14244 14248 14252 14256 14260 14264 14268 14272 14276 14280 14284 14288 14292 14296 14300 14304 14308 14312 14316 14320 14324 14328 14332 14336 14340 14344 14348 14352 14356 14360 14364 14368 14372 14376 14380 14384 14388 14392 14396 14400 14404 14408 14412 14416 14420 14424 14428 14432 14436 14440 14444 14448 14452 14456 14460 14464 14468 14472 14476 14480 14484 14488 14492 14496 14500 14504 14508 14512 14516 14520 14524 14528 14532 14536 14540 14544 14548 14552 14556 14560 14564 14568 14572 14576 14580 14584 14588 14592 14596 14600 14604 14608 14612 14616 14620 14624 14628 14632 14636 14640 14644 14648 14652 14656 14660 14664 14668 14672 14676 14680 14684 14688 14692 14696 14700 14704 14708 14712 14716 14720 14724 14728 14732 14736 14740 14744 14748 14752 14756 14760 14764 14768 14772 14776 14780 14784 14788 14792 14796 14800 14804 14808 14812 14816 14820 14824 14828 14832 14836 14840 14844 14848 14852 14856 14860 14864 14868 14872 14876 14880 14884 14888 14892 14896 14900 14904 14908 14912 14916 14920 14924 14928 14932 14936 14940 14944 14948 14952 14956 14960 14964 14968 14972 14976 14980 14984 14988 14992 14996 15000 15004 15008 15012 15016 15020 15024 15028 15032 15036 15040 15044 15048 15052 15056 15060 15064 15068 15072 15076 15080 15084 15088 15092 15096 15100 15104 15108 15112 15116 15120 15124 15128 15132 15136 15140 15144 15148 15152 15156 15160 15164 15168 15172 15176 15180 15184 15188 15192 15196 15200 15204 15208 15212 15216 15220 15224 15228 15232 15236 15240 15244 15248 15252 15256 15260 15264 15268 15272 15276 15280 15284 15288 15292 15296 15300 15304 15308 15312 15316 15320 15324 15328 15332 15336 15340 15344 15348 15352 15356 15360 15364 15368 15372 15376 15380 15384 15388 15392 15396 15400 15404 15408 15412 15416 15420 15424 15428 15432 15436 15440 15444 15448 15452 15456 15460 15464 15468 15472 15476 15480 15484 15488 15492 15496 15500 15504 15508 15512 15516 15520 15524 15528 15532 15536 15540 15544 15548 15552 15556 15560 15564 15568 15572 15576 15580 15584 15588 15592 15596 15600 15604 15608 15612 15616 15620 15624 15628 15632 15636 15640 15644 15648 15652 15656 15660 15664 15668 15672 15676 15680 15684 15688 15692 15696 15700 15704 15708 15712 15716 15720 15724 15728 15732 15736 15740 15744 15748 15752 15756 15760 15764 15768 15772 15776 15780 15784 15788 15792 15796 15800 15804 15808 15812 15816 15820 15824 15828 15832 15836 15840 15844 15848 15852 15856 15860 15864 15868 15872 15876 15880 15884 15888 15892 15896 15900 15904 15908 15912 15916 15920 15924 15928 15932 15936 15940 15944 15948 15952 15956 15960 15964 15968 15972 15976 15980 15984 15988 15992 15996 16000 16004 16008 16012 16016 16020 16024 16028 16032 16036 16040 16044 16048 16052 16056 16060 16064 16068 16072 16076 16080 16084 16088 16092 16096 16100 16104 16108 16112 16116 16120 16124 16128 16132 16136 16140 16144 16148 16152 16156 16160 16164 16168 16172 16176 16180 16184 16188 16192 16196 16200 16204 16208 16212 16216 16220 16224 16228 16232 16236 16240 16244 16248 16252 16256 16260 16264 16268 16272 16276 16280 16284 16288 16292 16296 16300 16304 16308 16312 16316 16320 16324 16328 16332 16336 16340 16344 16348 16352 16356 16360 16364 16368 16372 16376 16380 16384 16388 16392 16396 16400 16404 16408 16412 16416 16420 16424 16428 16432 16436 16440 16444 16448 16452 16456 16460 16464 16468 16472 16476 16480 16484 16488 16492 16496 16500 16504 16508 16512 16516 16520 16524 16528 16532 16536 16540 16544 16548 16552 16556 16560 16564 16568 16572 16576 16580 16584 16588 16592 16596 16600 16604 16608 16612 16616 16620 16624 16628 16632 16636 16640 16644 16648 16652 16656 16660 16664 16668 16672 16676 16680 16684 16688 16692 16696 16700 16704 16708 16712 16716 16720 16724 16728 16732 16736 16740 16744 16748 16752 16756 16760 16764 16768 16772 16776 16780 16784 16788 16792 16796 16800 16804 16808 16812 16816 16820 16824 16828 16832 16836 16840 16844 16848 16852 16856 16860 16864 16868 16872 16876 16880 16884 16888 16892 16896 16900 16904 16908 16912 16916 16920 16924 16928 16932 16936 16940 16944 16948 16952 16956 16960 16964 16968 16972 16976 16980 16984 16988 16992 16996 17000 17004 17008 17012 17016 17020 17024 17028 17032 17036 17040 17044 17048 17052 17056 17060 17064 17068 17072 17076 17080 17084 17088 17092 17096 17100 17104 17108 17112 17116 17120 17124 17128 17132 17136 17140 17144 17148 17152 17156 17160 17164 17168 17172 17176 17180 17184 17188 17192 17196 17200 17204 17208 17212 17216 17220 17224 17228 17232 17236 17240 17244 17248 17252 17256 17260 17264 17268 17272 17276 17280 17284 17288 17292 17296 17300 17304 17308 17312 17316 17320 17324 17328 17332 17336 17340 17344 17348 17352 17356 17360 17364 17368 17372 17376 17380 17384 17388 17392 17396 17400 17404 17408 17412 17416 17420 17424 17428 17432 17436 17440 17444 17448 17452 17456 17460 17464 17468 17472 17476 17480 17484 17488 17492 17496 17500 17504 17508 17512 17516 17520 17524 17528 17532 17536 17540 17544 17548 17552 17556 17560 17564 17568 17572 17576 17580 17584 17588 17592 17596 17600 17604 17608 17612 17616 17620 17624 17628 17632 17636 17640 17644 17648 17652 17656 17660 17664 17668 17672 17676 17680 17684 17688 17692 17696 17700 17704 17708 17712 17716 17720 17724 17728 17732 17736 17740 17744 17748 17752 17756 17760 17764 17768 17772 17776 17780 17784 17788 17792 17796 17800 17804 17808 17812 17816 17820 17824 17828 17832 17836 17840 17844 17848 17852 17856 17860 17864 17868 17872 17876 17880 17884 17888 17892 17896 17900 17904 17908 17912 17916 17920 17924 17928 17932 17936 17940 17944 17948 17952 17956 17960 17964 17968 17972 17976 17980 17984 17988 17992 17996 18000 18004 18008 18012 18016 18020 18024 18028 18032 18036 18040 18044 18048 18052 18056 18060 18064 18068 18072 18076 18080 18084 18088 18092 18096 18100 18104 18108 18112 18116 18120 18124 18128 18132 18136 18140 18144 18148 18152 18156 18160 18164 18168 18172 18176 18180 18184 18188 18192 18196 18200 18204 18208 18212 18216 18220 18224 18228 18232 18236 18240 18244 18248 18252 18256 18260 18264 18268 18272 18276 18280 18284 18288 18292 18296 18300 18304 18308 18312 18316 18320 18324 18328 18332 18336 18340 18344 18348 18352 18356 18360 18364 18368 18372 18376 18380 18384 18388 18392 18396 18400 18404 18408 18412 18416 18420 18424 18428 18432 18436 18440 18444 18448 18452 18456 18460 18464 18468 18472 18476 18480 18484 18488 18492 18496 18500 18504 18508 18512 18516 18520 18524 18528 18532 18536 18540 18544 18548 18552 18556 18560 18564 18568 18572 18576 18580 18584 18588 18592 18596 18600 18604 18608 18612 18616 18620 18624 18628 18632 18636 18640 18644 18648 18652 18656 18660 18664 18668 18672 18676 18680 18684 18688 18692 18696 18700 18704 18708 18712 18716 18720 18724 18728 18732 18736 18740 18744 18748 18752 18756 18760 18764 18768 18772 18776 18780 18784 18788 18792 18796 18800 18804 18808 18812 18816 18820 18824 18828 18832 18836 18840 18844 18848 18852 18856 18860 18864 18868 18872 18876 18880 18884 18888 18892 18896 18900 18904 18908 18912 18916 18920 18924 18928 18932 18936 18940 18944 18948 18952 18956 18960 18964 18968 18972 18976 18980 18984 18988 18992 18996 19000 19004 19008 19012 19016 19020 19024 19028 19032 19036 19040 19044 19048 19052 19056 19060 19064 19068 19072 19076 19080 19084 19088 19092 19096 19100 19104 19108 19112 19116 19120 19124 19128 19132 19136 19140 19144 19148 19152 19156 19160 19164 19168 19172 19176 19180 19184 19188 19192 19196 19200 19204 19208 19212 19216 19220 19224 19228 19232 19236 19240 19244 19248 19252 19256 19260 19264 19268 19272 19276 19280 19284 19288 19292 19296 19300 19304 19308 19312 19316 19320 19324 19328 19332 19336 19340 19344 19348 19352 19356 19360 19364 19368 19372 19376 19380 19384 19388 19392 19396 19400 19404 19408 19412 19416 19420 19424 19428 19432 19436 19440 19444 19448 19452 19456 19460 19464 19468 19472 19476 19480 19484 19488 19492 19496 19500 19504 19508 19512 19516 19520 19524 19528 19532 19536 19540 19544 19548 19552 19556 19560 19564 19568 19572 19576 19580 19584 19588 19592 19596 19600 19604 19608 19612 19616 19620 19624 19628 19632 19636 19640 19644 19648 19652 19656 19660 19664 19668 19672 19676 19680 19684 19688 19692 19696 19700 19704 19708 19712 19716 19720 19724 19728 19732 19736 19740 19744 19748 19752 19756 19760 19764 19768 19772 19776 19780 19784 19788 19792 19796 19800 19804 19808 19812 19816 19820 19824 19828 19832 19836 19840 19844 19848 19852 19856 19860 19864 19868 19872 19876 19880 19884 19888 19892 19896 19900 19904 19908 19912 19916 19920 19924 19928 19932 19936 19940 19944 19948 19952 19956 19960 19964 19968 19972 19976 19980 19984 19988 19992 19996 20000 20004 20008 20012 20016 20020 20024 20028 20032 20036 20040 20044 20048 20052 20056 20060 20064 20068 20072 20076 20080 20084 20088 20092 20096 20100 20104 20108 20112 20116 20120 20124 20128 20132 20136 20140 20144 20148 20152 20156 20160 20164 20168 20172 20176 20180 20184 20188 20192 20196 20200 20204 20208 20212 20216 20220 20224 20228 20232 20236 20240 20244 20248 20252 20256 20260 20264 20268 20272 20276 20280 20284 20288 20292 20296 20300 20304 20308 20312 20316 20320 20324 20328 20332 20336 20340 20344 20348 20352 20356 20360 20364 20368 20372 20376 20380 20384 20388 20392 20396 20400 20404 20408 20412 20416 20420 20424 20428 20432 20436 20440 20444 20448 20452 20456 20460 20464 20468 20472 20476 20480 20484 20488 20492 20496 20500 20504 20508 20512 20516 20520 20524 20528 20532 20536 20540 20544 20548 20552 20556 20560 20564 20568 20572 20576 20580 20584 20588 20592 20596 20600 20604 20608 20612 20616 20620 20624 20628 20632 20636 20640 20644 20648 20652 20656 20660 20664 20668 20672 20676 20680 20684 20688 20692 20696 20700 20704 20708 20712 20716 20720 20724 20728 20732 20736 20740 20744 20748 20752 20756 20760 20764 20768 20772 20776 20780 20784 20788 20792 20796 20800 20804 20808 20812 20816 20820 20824 20828 20832 20836 20840 20844 20848 20852 20856 20860 20864 20868 20872 20876 20880 20884 20888 20892 20896 20900 20904 20908 20912 20916 20920 20924 20928 20932 20936 20940 20944 20948 20952 20956 20960 20964 20968 20972 20976 20980 20984 20988 20992 20996 21000 21004 21008 21012 21016 21020 21024 21028 21032 21036 21040 21044 21048 21052 21056 21060 21064 21068 21072 21076 21080 21084 21088 21092 21096 21100 21104 21108 21112 21116 21120 21124 21128 21132 21136 21140 21144 21148 21152 21156 21160 21164 21168 21172 21176 21180 21184 21188 21192 21196 21200 21204 21208 21212 21216 21220 21224 21228 21232 21236 21240 21244 21248 21252 21256 21260 21264 21268 21272 21276 21280 21284 21288 21292 21296 21300 21304 21308 21312 21316 21320 21324 21328 21332 21336 21340 21344 21348 21352 21356 21360 21364 21368 21372 21376 21380 21384 21388 21392 21396 21400 21404 21408 21412 21416 21420 21424 21428 21432 21436 21440 21444 21448 21452 21456 21460 21464 21468 21472 21476 21480 21484 21488 21492 21496 21500 21504 21508 21512 21516 21520 21524 21528 21532 21536 21540 21544 21548 21552 21556 21560 21564 21568 21572 21576 21580 21584 21588 21592 21596 21600 21604 21608 21612 21616 21620 21624 21628 21632 21636 21640 21644 21648 21652 21656 21660 21664 21668 21672 21676 21680 21684 21688 21692 21696 21700 21704 21708 21712 21716 21720 21724 21728 21732 21736 21740 21744 21748 21752 21756 21760 21764 21768 21772 21776 21780 21784 21788 21792 21796 21800 21804 21808 21812 21816 21820 21824 21828 21832 21836 21840 21844 21848 21852 21856 21860 21864 21868 21872 21876 21880 21884 21888 21892 21896 21900 21904 21908 21912 21916 21920 21924 21928 21932 21936 21940 21944 21948 21952 21956 21960 21964 21968 21972 21976 21980 21984 21988 21992 21996 22000 22004 22008 22012 22016 22020 22024 22028 22032 22036 22040 22044 22048 22052 22056 22060 22064 22068 22072 22076 22080 22084 22088 22092 22096 22100 22104 22108 22112 22116 22120 22124 22128 22132 22136 22140 22144 22148 22152 22156 22160 22164 22168 22172 22176 22180 22184 22188 22192 22196 22200 22204 22208 22212 22216 22220 22224 22228 22232 22236 22240 22244 22248 22252 22256 22260 22264 22268 22272 22276 22280 22284 22288 22292 22296 22300 22304 22308 22312 22316 22320 22324 22328 22332 22336 22340 22344 22348 22352 22356 22360 22364 22368 22372 22376 22380 22384 22388 22392 22396 22400 22404 22408 22412 22416 22420 22424 22428 22432 22436 22440 22444 22448 22452 22456 22460 22464 22468 22472 22476 22480 22484 22488 22492 22496 22500 22504 22508 22512 22516 22520 22524 22528 22532 22536 22540 22544 22548 22552 22556 22560 22564 22568 22572 22576 22580 22584 22588 22592 22596 22600 22604 22608 22612 22616 22620 22624 22628 22632 22636 22640 22644 22648 22652 22656 22660 22664 22668 22672 22676 22680 22684 22688 22692 22696 22700 22704 22708 22712 22716 22720 22724 22728 22732 22736 22740 22744 22748 22752 22756 22760 22764 22768 22772 22776 22780 22784 22788 22792 22796 22800 22804 22808 22812 22816 22820 22824 22828 22832 22836 22840 22844 22848 22852 22856 22860 22864 22868 22872 22876 22880 22884 22888 22892 22896 22900 22904 22908 22912 22916 22920 22924 22928 22932 22936 22940 22944 22948 22952 22956 22960 22964 22968 22972 22976 22980 22984 22988 22992 22996 23000 23004 23008 23012 23016 23020 23024 23028 23032 23036 23040 23044 23048 23052 23056 23060 23064 23068 23072 23076 23080 23084 23088 23092 23096 23100 23104 23108 23112 23116 23120 23124 23128 23132 23136 23140 23144 23148 23152 23156 23160 23164 23168 23172 23176 23180 23184 23188 23192 23196 23200 23204 23208 23212 23216 23220 23224 23228 23232 23236 23240 23244 23248 23252 23256 23260 23264 23268 23272 23276 23280 23284 23288 23292 23296 23300 23304 23308 23312 23316 23320 23324 23328 23332 23336 23340 23344 23348 23352 23356 23360 23364 23368 23372 23376 23380 23384 23388 23392 23396 23400 23404 23408 23412 23416 23420 23424 23428 23432 23436 23440 23444 23448 23452 23456 23460 23464 23468 23472 23476 23480 23484 23488 23492 23496 23500 23504 23508 23512 23516 23520 23524 23528 23532 23536 23540 23544 23548 23552 23556 23560 23564 23568 23572 23576 23580 23584 23588 23592 23596 23600 23604 23608 23612 23616 23620 23624 23628 23632 23636 23640 23644 23648 23652 23656 23660 23664 23668 23672 23676 23680 23684 23688 23692 23696 23700 23704 23708 23712 23716 23720 23724 23728 23732 23736 23740 23744 23748 23752 23756 23760 23764 23768 23772 23776 23780 23784 23788 23792 23796 23800 23804 23808 23812 23816 23820 23824 23828 23832 23836 23840 23844 23848 23852 23856 23860 23864 23868 23872 23876 23880 23884 23888 23892 23896 23900 23904 23908 23912 23916 23920 23924 23928 23932 23936 23940 23944 23948 23952 23956 23960 23964 23968 23972 23976 23980 23984 23988 23992 23996 24000 24004 24008 24012 24016 24020 24024 24028 24032 24036 24040 24044 24048 24052 24056 24060 24064 24068 24072 24076 24080 24084 24088 24092 24096 24100 24104 24108 24112 24116 24120 24124 24128 24132 24136 24140 24144 24148 24152 24156 24160 24164 24168 24172 24176 24180 24184 24188 24192 24196 24200 24204 24208 24212 24216 24220 24224 24228 24232 24236 24240 24244 24248 24252 24256 24260 24264 24268 24272 24276 24280 24284 24288 24292 24296 24300 24304 24308 24312 24316 24320 24324 24328 24332 24336 24340 24344 24348 24352 24356 24360 24364 24368 24372 24376 24380 24384 24388 24392 24396 24400 24404 24408 24412 24416 24420 24424 24428 24432 24436 24440 24444 24448 24452 24456 24460 24464 24468 24472 24476 24480 24484 24488 24492 24496 24500 24504 24508 24512 24516 24520 24524 24528 24532 24536 24540 24544 24548 24552 24556 24560 24564 24568 24572 24576 24580 24584 24588 24592 24596 24600 24604 24608 24612 24616 24620 24624 24628 24632 24636 24640 24644 24648 24652 24656 24660 24664 24668 24672 24676 24680 24684 24688 24692 24696 24700 24704 24708 24712 24716 24720 24724 24728 24732 24736 24740 24744 24748 24752 24756 24760 24764 24768 24772 24776 24780 24784 24788 24792 24796 24800 24804 24808 24812 24816 24820 24824 24828 24832 24836 24840 24844 24848 24852 24856 24860 24864 24868 24872 24876 24880 24884 24888 24892 24896 24900 24904 24908 24912 24916 24920 24924 24928 24932 24936 24940 24944 24948 24952 24956 24960 24964 24968 24972 24976 24980 24984 24988 24992 24996 25000 25004 25008 25012 25016 25020 25024 25028 25032 25036 25040 25044 25048 25052 25056 25060 25064 25068 25072 25076 25080 25084 25088 25092 25096 25100 25104 25108 25112 25116 25120 25124 25128 25132 25136 25140 25144 25148 25152 25156 25160 25164 25168 25172 25176 25180 25184 25188 25192 25196 25200 25204 25208 25212 25216 25220 25224 25228 25232 25236 25240 25244 25248 25252 25256 25260 25264 25268 25272 25276 25280 25284 25288 25292 25296 25300 25304 25308 25312 25316 25320 25324 25328 25332 25336 25340 25344 25348 25352 25356 25360 25364 25368 25372 25376 25380 25384 25388 25392 25396 25400 25404 25408 25412 25416 25420 25424 25428 25432 25436 25440 25444 25448 25452 25456 25460 25464 25468 25472 25476 25480 25484 25488 25492 25496 25500 25504 25508 25512 25516 25520 25524 25528 25532 25536 25540 25544 25548 25552 25556 25560 25564 25568 25572 25576 25580 25584 25588 25592 25596 25600 25604 25608 25612 25616 25620 25624 25628 25632 25636 25640 25644 25648 25652 25656 25660 25664 25668 25672 25676 25680 25684 25688 25692 25696 25700 25704 25708 25712 25716 25720 25724 25728 25732 25736 25740 25744 25748 25752 25756 25760 25764 25768 25772 25776 25780 25784 25788 25792 25796 25800 25804 25808 25812 25816 25820 25824 25828 25832 25836 25840 25844 25848 25852 25856 25860 25864 25868 25872 25876 25880 25884 25888 25892 25896 25900 25904 25908 25912 25916 25920 25924 25928 25932 25936 25940 25944 25948 25952 25956 25960 25964 25968 25972 25976 25980 25984 25988 25992 25996 26000 26004 26008 26012 26016 26020 26024 26028 26032 26036 26040 26044 26048 26052 26056 26060 26064 26068 26072 26076 26080 26084 26088 26092 26096 26100 26104 26108 26112 26116 26120 26124 26128 26132 26136 26140 26144 26148 26152 26156 26160 26164 26168 26172 26176 26180 26184 26188 26192 26196 26200 26204 26208 26212 26216 26220 26224 26228 26232 26236 26240 26244 26248 26252 26256 26260 26264 26268 26272 26276 26280 26284 26288 26292 26296 26300 26304 26308 26312 26316 26320 26324 26328 26332 26336 26340 26344 26348 26352 26356 26360 26364 26368 26372 26376 26380 26384 26388 26392 26396 26400 26404 26408 26412 26416 26420 26424 26428 26432 26436 26440 26444 26448 26452 26456 26460 26464 26468 26472 26476 26480 26484 26488 26492 26496 26500 26504 26508 26512 26516 26520 26524 26528 26532 26536 26540 26544 26548 26552 26556 26560 26564 26568 26572 26576 26580 26584 26588 26592 26596 26600 26604 26608 26612 26616 26620 26624 26628 26632 26636 26640 26644 26648 26652 26656 26660 26664 26668 26672 26676 26680 26684 26688 26692 26696 26700 26704 26708 26712 26716 26720 26724 26728 26732 26736 26740 26744 26748 26752 26756 26760 26764 26768 26772 26776 26780 26784 26788 26792 26796 26800 26804 26808 26812 26816 26820 26824 26828 26832 26836 26840 26844 26848 26852 26856 26860 26864 26868 26872 26876 26880 26884 26888 26892 26896 26900 26904 26908 26912 26916 26920 26924 26928 26932 26936 26940 26944 26948 26952 26956 26960 26964 26968 26972 26976 26980 26984 26988 26992 26996 27000 27004 27008 27012 27016 27020 27024 27028 27032 27036 27040 27044 27048 27052 27056 27060 27064 27068 27072 27076 27080 27084 27088 27092 27096 27100 27104 27108 27112 27116 27120 27124 27128 27132 27136 27140 27144 27148 27152 27156 27160 27164 27168 27172 27176 27180 27184 27188 27192 27196 27200 27204 27208 27212 27216 27220 27224 27228 27232 27236 27240 27244 27248 27252 27256 27260 27264 27268 27272 27276 27280 27284 27288 27292 27296 27300 27304 27308 27312 27316 27320 27324 27328 27332 27336 27340 27344 27348 27352 27356 27360 27364 27368 27372 27376 27380 27384 27388 27392 27396 27400 27404 27408 27412 27416 27420 27424 27428 27432 27436 27440 27444 27448 27452 27456 27460 27464 27468 27472 27476 27480 27484 27488 27492 27496 27500 27504 27508 27512 27516 27520 27524 27528 27532 27536 27540 27544 27548 27552 27556 27560 27564 27568 27572 27576 27580 27584 27588 27592 27596 27600 27604 27608 27612 27616 27620 27624 27628 27632 27636 27640 27644 27648 27652 27656 27660 27664 27668 27672 27676 27680 27684 27688 27692 27696 27700 27704 27708 27712 27716 27720 27724 27728 27732 27736 27740 27744 27748 27752 27756 27760 27764 27768 27772 27776 27780 27784 27788 27792 27796 27800 27804 27808 27812 27816 27820 27824 27828 27832 27836 27840 27844 27848 27852 27856 27860 27864 27868 27872 27876 27880 27884 27888 27892 27896 27900 27904 27908 27912 27916 27920 27924 27928 27932 27936 27940 27944 27948 27952 27956 27960 27964 27968 27972 27976 27980 27984 27988 27992 27996 28000 28004 28008 28012 28016 28020 28024 28028 28032 28036 28040 28044 28048 28052 28056 28060 28064 28068 28072 28076 28080 28084 28088 28092 28096 28100 28104 28108 28112 28116 28120 28124 28128 28132 28136 28140 28144 28148 28152 28156 28160 28164 28168 28172 28176 28180 28184 28188 28192 28196 28200 28204 28208 28212 28216 28220 28224 28228 28232 28236 28240 28244 28248 28252 28256 28260 28264 28268 28272 28276 28280 28284 28288 28292 28296 28300 28304 28308 28312 28316 28320 28324 28328 28332 28336 28340 28344 28348 28352 28356 28360 28364 28368 28372 28376 28380 28384 28388 28392 28396 28400 28404 28408 28412 28416 28420 28424 28428 28432 28436 28440 28444 28448 28452 28456 28460 28464 28468 28472 28476 28480 28484 28488 28492 28496 28500 28504 28508 28512 28516 28520 28524 28528 28532 28536 28540 28544 28548 28552 28556 28560 28564 28568 28572 28576 28580 28584 28588 28592 28596 28600 28604 28608 28612 28616 28620 28624 28628 28632 28636 28640 28644 28648 28652 28656 28660 28664 28668 28672 28676 28680 28684 28688 28692 28696 28700 28704 28708 28712 28716 28720 28724 28728 28732 28736 28740 28744 28748 28752 28756 28760 28764 28768 28772 28776 28780 28784 28788 28792 28796 28800 28804 28808 28812 28816 28820 28824 28828 28832 28836 28840 28844 28848 28852 28856 28860 28864 28868 28872 28876 28880 28884 28888 28892 28896 28900 28904 28908 28912 28916 28920 28924 28928 28932 28936 28940 28944 28948 28952 28956 28960 28964 28968 28972 28976 28980 28984 28988 28992 28996 29000 29004 29008 29012 29016 29020 29024 29028 29032 29036 29040 29044 29048 29052 29056 29060 29064 29068 29072 29076 29080 29084 29088 29092 29096 29100 29104 29108 29112 29116 29120 29124 29128 29132 29136 29140 29144 29148 29152 29156 29160 29164 29168 29172 29176 29180 29184 29188 29192 29196 29200 29204 29208 29212 29216 29220 29224 29228 29232 29236 29240 29244 29248 29252 29256 29260 29264 29268 29272 29276 29280 29284 29288 29292 29296 29300 29304 29308 29312 29316 29320 29324 29328 29332 29336 29340 29344 29348 29352 29356 29360 29364 
        </DataArray>
        <DataArray type="UInt8" Name="types" format="ascii">
          10 10 10 10 10 10 10 10 10 10 10 10 10 10 10 10 10 10 10 10 10 10 10 10 10 10 10 10 10 10 10 10 10 10 10 10 10 10 10 10 10 10 10 10 10 10 10 10 10 10 10 10 10 10 10 10 10 10 10 10 10 10 10 10 10 10 10 10 10 10 10 10 10 10 10 10 10 10 10 10 10 10 10 10 10 10 10 10 10 10 10 10 10 10 10 10 10 10 10 10 10 10 10 10 10 10 10 10 10 10 10 10 10 10 10 10 10 10 10 10 10 10 10 10 10 10 10 10 10 10 10 10 10 10 10 10 10 10 10 10 10 10 10 10 10 10 10 10 10 10 10 10 10 10 10 10 10 10 10 10 10 10 10 10 10 10 10 10 10 10 10 10 10 10 10 10 10 10 10 10 10 10 10 10 10 10 10 10 10 10 10 10 10 10 10 10 10 10 10 10 10 10 10 10 10 10 10 10 10 10 10 10 10 10 10 10 10 10 10 10 10 10 10 10 10 10 10 10 10 10 10 10 10 10 10 10 10 10 10 10 10 10 10 10 10 10 10 10 10 10 10 10 10 10 10 10 10 10 10 10 10 10 10 10 10 10 10 10 10 10 10 10 10 10 10 10 10 10 10 10 10 10 10 10 10 10 10 10 10 10 10 10 10 10 10 10 10 10 10 10 10 10 10 10 10 10 10 10 10 10 10 10 10 10 10 10 10 10 10 10 10 10 10 10 10 10 10 10 10 10 10 10 10 10 10 10 10 10 10 10 10 10 10 10 10 10 10 10 10 10 10 10 10 10 10 10 10 10 10 10 10 10 10 10 10 10 10 10 10 10 10 10 10 10 10 10 10 10 10 10 10 10 10 10 10 10 10 10 10 10 10 10 10 10 10 10 10 10 10 10 10 10 10 10 10 10 10 10 10 10 10 10 10 10 10 10 10 10 10 10 10 10 10 10 10 10 10 10 10 10 10 10 10 10 10 10 10 10 10 10 10 10 10 10 10 10 10 10 10 10 10 10 10 10 10 10 10 10 10 10 10 10 10 10 10 10 10 10 10 10 10 10 10 10 10 10 10 10 10 10 10 10 10 10 10 10 10 10 10 10 10 10 10 10 10 10 10 10 10 10 10 10 10 10 10 10 10 10 10 10 10 10 10 10 10 10 10 10 10 10 10 10 10 10 10 10 10 10 10 10 10 10 10 10 10 10 10 10 10 10 10 10 10 10 10 10 10 10 10 10 10 10 10 10 10 10 10 10 10 10 10 10 10 10 10 10 10 10 10 10 10 10 10 10 10 10 10 10 10 10 10 10 10 10 10 10 10 10 10 10 10 10 10 10 10 10 10 10 10 10 10 10 10 10 10 10 10 10 10 10 10 10 10 10 10 10 10 10 10 10 10 10 10 10 10 10 10 10 10 10 10 10 10 10 10 10 10 10 10 10 10 10 10 10 10 10 10 10 10 10 10 10 10 10 10 10 10 10 10 10 10 10 10 10 10 10 10 10 10 10 10 10 10 10 10 10 10 10 10 10 10 10 10 10 10 10 10 10 10 10 10 10 10 10 10 10 10 10 10 10 10 10 10 10 10 10 10 10 10 10 10 10 10 10 10 10 10 10 10 10 10 10 10 10 10 10 10 10 10 10 10 10 10 10 10 10 10 10 10 10 10 10 10 10 10 10 10 10 10 10 10 10 10 10 10 10 10 10 10 10 10 10 10 10 10 10 10 10 10 10 10 10 10 10 10 10 10 10 10 10 10 10 10 10 10 10 10 10 10 10 10 10 10 10 10 10 10 10 10 10 10 10 10 10 10 10 10 10 10 10 10 10 10 10 10 10 10 10 10 10 10 10 10 10 10 10 10 10 10 10 10 10 10 10 10 10 10 10 10 10 10 10 10 10 10 10 10 10 10 10 10 10 10 10 10 10 10 10 10 10 10 10 10 10 10 10 10 10 10 10 10 10 10 10 10 10 10 10 10 10 10 10 10 10 10 10 10 10 10 10 10 10 10 10 10 10 10 10 10 10 10 10 10 10 10 10 10 10 10 10 10 10 10 10 10 10 10 10 10 10 10 10 10 10 10 10 10 10 10 10 10 10 10 10 10 10 10 10 10 10 10 10 10 10 10 10 10 10 10 10 10 10 10 10 10 10 10 10 10 10 10 10 10 10 10 10 10 10 10 10 10 10 10 10 10 10 10 10 10 10 10 10 10 10 10 10 10 10 10 10 10 10 10 10 10 10 10 10 10 10 10 10 10 10 10 10 10 10 10 10 10 10 10 10 10 10 10 10 10 10 10 10 10 10 10 10 10 10 10 10 10 10 10 10 10 10 10 10 10 10 10 10 10 10 10 10 10 10 10 10 10 10 10 10 10 10 10 10 10 10 10 10 10 10 10 10 10 10 10 10 10 10 10 10 10 10 10 10 10 10 10 10 10 10 10 10 10 10 10 10 10 10 10 10 10 10 10 10 10 10 10 10 10 10 10 10 10 10 10 10 10 10 10 10 10 10 10 10 10 10 10 10 10 10 10 10 10 10 10 10 10 10 10 10 10 10 10 10 10 10 10 10 10 10 10 10 10 10 10 10 10 10 10 10 10 10 10 10 10 10 10 10 10 10 10 10 10 10 10 10 10 10 10 10 10 10 10 10 10 10 10 10 10 10 10 10 10 10 10 10 10 10 10 10 10 10 10 10 10 10 10 10 10 10 10 10 10 10 10 10 10 10 10 10 10 10 10 10 10 10 10 10 10 10 10 10 10 10 10 10 10 10 10 10 10 10 10 10 10 10 10 10 10 10 10 10 10 10 10 10 10 10 10 10 10 10 10 10 10 10 10 10 10 10 10 10 10 10 10 10 10 10 10 10 10 10 10 10 10 10 10 10 10 10 10 10 10 10 10 10 10 10 10 10 10 10 10 10 10 10 10 10 10 10 10 10 10 10 10 10 10 10 10 10 10 10 10 10 10 10 10 10 10 10 10 10 10 10 10 10 10 10 10 10 10 10 10 10 10 10 10 10 10 10 10 10 10 10 10 10 10 10 10 10 10 10 10 10 10 10 10 10 10 10 10 10 10 10 10 10 10 10 10 10 10 10 10 10 10 10 10 10 10 10 10 10 10 10 10 10 10 10 10 10 10 10 10 10 10 10 10 10 10 10 10 10 10 10 10 10 10 10 10 10 10 10 10 10 10 10 10 10 10 10 10 10 10 10 10 10 10 10 10 10 10 10 10 10 10 10 10 10 10 10 10 10 10 10 10 10 10 10 10 10 10 10 10 10 10 10 10 10 10 10 10 10 10 10 10 10 10 10 10 10 10 10 10 10 10 10 10 10 10 10 10 10 10 10 10 10 10 10 10 10 10 10 10 10 10 10 10 10 10 10 10 10 10 10 10 10 10 10 10 10 10 10 10 10 10 10 10 10 10 10 10 10 10 10 10 10 10 10 10 10 10 10 10 10 10 10 10 10 10 10 10 10 10 10 10 10 10 10 10 10 10 10 10 10 10 10 10 10 10 10 10 10 10 10 10 10 10 10 10 10 10 10 10 10 10 10 10 10 10 10 10 10 10 10 10 10 10 10 10 10 10 10 10 10 10 10 10 10 10 10 10 10 10 10 10 10 10 10 10 10 10 10 10 10 10 10 10 10 10 10 10 10 10 10 10 10 10 10 10 10 10 10 10 10 10 10 10 10 10 10 10 10 10 10 10 10 10 10 10 10 10 10 10 10 10 10 10 10 10 10 10 10 10 10 10 10 10 10 10 10 10 10 10 10 10 10 10 10 10 10 10 10 10 10 10 10 10 10 10 10 10 10 10 10 10 10 10 10 10 10 10 10 10 10 10 10 10 10 10 10 10 10 10 10 10 10 10 10 10 10 10 10 10 10 10 10 10 10 10 10 10 10 10 10 10 10 10 10 10 10 10 10 10 10 10 10 10 10 10 10 10 10 10 10 10 10 10 10 10 10 10 10 10 10 10 10 10 10 10 10 10 10 10 10 10 10 10 10 10 10 10 10 10 10 10 10 10 10 10 10 10 10 10 10 10 10 10 10 10 10 10 10 10 10 10 10 10 10 10 10 10 10 10 10 10 10 10 10 10 10 10 10 10 10 10 10 10 10 10 10 10 10 10 10 10 10 10 10 10 10 10 10 10 10 10 10 10 10 10 10 10 10 10 10 10 10 10 10 10 10 10 10 10 10 10 10 10 10 10 10 10 10 10 10 10 10 10 10 10 10 10 10 10 10 10 10 10 10 10 10 10 10 10 10 10 10 10 10 10 10 10 10 10 10 10 10 10 10 10 10 10 10 10 10 10 10 10 10 10 10 10 10 10 10 10 10 10 10 10 10 10 10 10 10 10 10 10 10 10 10 10 10 10 10 10 10 10 10 10 10 10 10 10 10 10 10 10 10 10 10 10 10 10 10 10 10 10 10 10 10 10 10 10 10 10 10 10 10 10 10 10 10 10 10 10 10 10 10 10 10 10 10 10 10 10 10 10 10 10 10 10 10 10 10 10 10 10 10 10 10 10 10 10 10 10 10 10 10 10 10 10 10 10 10 10 10 10 10 10 10 10 10 10 10 10 10 10 10 10 10 10 10 10 10 10 10 10 10 10 10 10 10 10 10 10 10 10 10 10 10 10 10 10 10 10 10 10 10 10 10 10 10 10 10 10 10 10 10 10 10 10 10 10 10 10 10 10 10 10 10 10 10 10 10 10 10 10 10 10 10 10 10 10 10 10 10 10 10 10 10 10 10 10 10 10 10 10 10 10 10 10 10 10 10 10 10 10 10 10 10 10 10 10 10 10 10 10 10 10 10 10 10 10 10 10 10 10 10 10 10 10 10 10 10 10 10 10 10 10 10 10 10 10 10 10 10 10 10 10 10 10 10 10 10 10 10 10 10 10 10 10 10 10 10 10 10 10 10 10 10 10 10 10 10 10 10 10 10 10 10 10 10 10 10 10 10 10 10 10 10 10 10 10 10 10 10 10 10 10 10 10 10 10 10 10 10 10 10 10 10 10 10 10 10 10 10 10 10 10 10 10 10 10 10 10 10 10 10 10 10 10 10 10 10 10 10 10 10 10 10 10 10 10 10 10 10 10 10 10 10 10 10 10 10 10 10 10 10 10 10 10 10 10 10 10 10 10 10 10 10 10 10 10 10 10 10 10 10 10 10 10 10 10 10 10 10 10 10 10 10 10 10 10 10 10 10 10 10 10 10 10 10 10 10 10 10 10 10 10 10 10 10 10 10 10 10 10 10 10 10 10 10 10 10 10 10 10 10 10 10 10 10 10 10 10 10 10 10 10 10 10 10 10 10 10 10 10 10 10 10 10 10 10 10 10 10 10 10 10 10 10 10 10 10 10 10 10 10 10 10 10 10 10 10 10 10 10 10 10 10 10 10 10 10 10 10 10 10 10 10 10 10 10 10 10 10 10 10 10 10 10 10 10 10 10 10 10 10 10 10 10 10 10 10 10 10 10 10 10 10 10 10 10 10 10 10 10 10 10 10 10 10 10 10 10 10 10 10 10 10 10 10 10 10 10 10 10 10 10 10 10 10 10 10 10 10 10 10 10 10 10 10 10 10 10 10 10 10 10 10 10 10 10 10 10 10 10 10 10 10 10 10 10 10 10 10 10 10 10 10 10 10 10 10 10 10 10 10 10 10 10 10 10 10 10 10 10 10 10 10 10 10 10 10 10 10 10 10 10 10 10 10 10 10 10 10 10 10 10 10 10 10 10 10 10 10 10 10 10 10 10 10 10 10 10 10 10 10 10 10 10 10 10 10 10 10 10 10 10 10 10 10 10 10 10 10 10 10 10 10 10 10 10 10 10 10 10 10 10 10 10 10 10 10 10 10 10 10 10 10 10 10 10 10 10 10 10 10 10 10 10 10 10 10 10 10 10 10 10 10 10 10 10 10 10 10 10 10 10 10 10 10 10 10 10 10 10 10 10 10 10 10 10 10 10 10 10 10 10 10 10 10 10 10 10 10 10 10 10 10 10 10 10 10 10 10 10 10 10 10 10 10 10 10 10 10 10 10 10 10 10 10 10 10 10 10 10 10 10 10 10 10 10 10 10 10 10 10 10 10 10 10 10 10 10 10 10 10 10 10 10 10 10 10 10 10 10 10 10 10 10 10 10 10 10 10 10 10 10 10 10 10 10 10 10 10 10 10 10 10 10 10 10 10 10 10 10 10 10 10 10 10 10 10 10 10 10 10 10 10 10 10 10 10 10 10 10 10 10 10 10 10 10 10 10 10 10 10 10 10 10 10 10 10 10 10 10 10 10 10 10 10 10 10 10 10 10 10 10 10 10 10 10 10 10 10 10 10 10 10 10 10 10 10 10 10 10 10 10 10 10 10 10 10 10 10 10 10 10 10 10 10 10 10 10 10 10 10 10 10 10 10 10 10 10 10 10 10 10 10 10 10 10 10 10 10 10 10 10 10 10 10 10 10 10 10 10 10 10 10 10 10 10 10 10 10 10 10 10 10 10 10 10 10 10 10 10 10 10 10 10 10 10 10 10 10 10 10 10 10 10 10 10 10 10 10 10 10 10 10 10 10 10 10 10 10 10 10 10 10 10 10 10 10 10 10 10 10 10 10 10 10 10 10 10 10 10 10 10 10 10 10 10 10 10 10 10 10 10 10 10 10 10 10 10 10 10 10 10 10 10 10 10 10 10 10 10 10 10 10 10 10 10 10 10 10 10 10 10 10 10 10 10 10 10 10 10 10 10 10 10 10 10 10 10 10 10 10 10 10 10 10 10 10 10 10 10 10 10 10 10 10 10 10 10 10 10 10 10 10 10 10 10 10 10 10 10 10 10 10 10 10 10 10 10 10 10 10 10 10 10 10 10 10 10 10 10 10 10 10 10 10 10 10 10 10 10 10 10 10 10 10 10 10 10 10 10 10 10 10 10 10 10 10 10 10 10 10 10 10 10 10 10 10 10 10 10 10 10 10 10 10 10 10 10 10 10 10 10 10 10 10 10 10 10 10 10 10 10 10 10 10 10 10 10 10 10 10 10 10 10 10 10 10 10 10 10 10 10 10 10 10 10 10 10 10 10 10 10 10 10 10 10 10 10 10 10 10 10 10 10 10 10 10 10 10 10 10 10 10 10 10 10 10 10 10 10 10 10 10 10 10 10 10 10 10 10 10 10 10 10 10 10 10 10 10 10 10 10 10 10 10 10 10 10 10 10 10 10 10 10 10 10 10 10 10 10 10 10 10 10 10 10 10 10 10 10 10 10 10 10 10 10 10 10 10 10 10 10 10 10 10 10 10 10 10 10 10 10 10 10 10 10 10 10 10 10 10 10 10 10 10 10 10 10 10 10 10 10 10 10 10 10 10 10 10 10 10 10 10 10 10 10 10 10 10 10 10 10 10 10 10 10 10 10 10 10 10 10 10 10 10 10 10 10 10 10 10 10 10 10 10 10 10 10 10 10 10 10 10 10 10 10 10 10 10 10 10 10 10 10 10 10 10 10 10 10 10 10 10 10 10 10 10 10 10 10 10 10 10 10 10 10 10 10 10 10 10 10 10 10 10 10 10 10 10 10 10 10 10 10 10 10 10 10 10 10 10 10 10 10 10 10 10 10 10 10 10 10 10 10 10 10 10 10 10 10 10 10 10 10 10 10 10 10 10 10 10 10 10 10 10 10 10 10 10 10 10 10 10 10 10 10 10 10 10 10 10 10 10 10 10 10 10 10 10 10 10 10 10 10 10 10 10 10 10 10 10 10 10 10 10 10 10 10 10 10 10 10 10 10 10 10 10 10 10 10 10 10 10 10 10 10 10 10 10 10 10 10 10 10 10 10 10 10 10 10 10 10 10 10 10 10 10 10 10 10 10 10 10 10 10 10 10 10 10 10 10 10 10 10 10 10 10 10 10 10 10 10 10 10 10 10 10 10 10 10 10 10 10 10 10 10 10 10 10 10 10 10 10 10 10 10 10 10 10 10 10 10 10 10 10 10 10 10 10 10 10 10 10 10 10 10 10 10 10 10 10 10 10 10 10 10 10 10 10 10 10 10 10 10 10 10 10 10 10 10 10 10 10 10 10 10 10 10 10 10 10 10 10 10 10 10 10 10 10 10 10 10 10 10 10 10 10 10 10 10 10 10 10 10 10 10 10 10 10 10 10 10 10 10 10 10 10 10 10 10 10 10 10 10 10 10 10 10 10 10 10 10 10 10 10 10 10 10 10 10 10 10 10 10 10 10 10 10 10 10 10 10 10 10 10 10 10 10 10 10 10 10 10 10 10 10 10 10 10 10 10 10 10 10 10 10 10 10 10 10 10 10 10 10 10 10 10 10 10 10 10 10 10 10 10 10 10 10 10 10 10 10 10 10 10 10 10 10 10 10 10 10 10 10 10 10 10 10 10 10 10 10 10 10 10 10 10 10 10 10 10 10 10 10 10 10 10 10 10 10 10 10 10 10 10 10 10 10 10 10 10 10 10 10 10 10 10 10 10 10 10 10 10 10 10 10 10 10 10 10 10 10 10 10 10 10 10 10 10 10 10 10 10 10 10 10 10 10 10 10 10 10 10 10 10 10 10 10 10 10 10 10 10 10 10 10 10 10 10 10 10 10 10 10 10 10 10 10 10 10 10 10 10 10 10 10 10 10 10 10 10 10 10 10 10 10 10 10 10 10 10 10 10 10 10 10 10 10 10 10 10 10 10 10 10 10 10 10 10 10 10 10 10 10 10 10 10 10 10 10 10 10 10 10 10 10 10 10 10 10 10 10 10 10 10 10 10 10 10 10 10 10 10 10 10 10 10 10 10 10 10 10 10 10 10 10 10 10 10 10 10 10 10 10 10 10 10 10 10 10 10 10 10 10 10 10 10 10 10 10 10 10 10 10 10 10 10 10 10 10 10 10 10 10 10 10 10 10 10 10 10 10 10 10 10 10 10 10 10 10 10 10 10 10 10 10 10 10 10 10 10 10 10 10 10 10 10 10 10 10 10 10 10 10 10 10 10 10 10 10 10 10 10 10 10 10 10 10 10 10 10 10 10 10 10 10 10 10 10 10 10 10 10 10 10 10 10 10 10 10 10 10 10 10 10 10 10 10 10 10 10 10 10 10 10 10 10 10 10 10 10 10 10 10 10 10 10 10 10 10 10 10 10 10 10 10 10 10 10 10 10 10 10 10 10 10 10 10 10 10 10 10 10 10 10 10 10 10 10 10 10 10 10 10 10 10 10 10 10 10 10 10 10 10 10 10 10 10 10 10 10 10 10 10 10 10 10 10 10 10 10 10 10 10 10 10 10 10 10 10 10 10 10 10 10 10 10 10 10 10 10 10 10 10 10 10 10 10 10 10 10 10 10 10 10 10 10 10 10 10 10 10 10 10 10 10 10 10 10 10 10 10 10 10 10 10 10 10 10 10 10 10 10 10 10 10 10 10 10 10 10 10 10 10 10 10 10 10 10 10 10 10 10 10 10 10 10 10 10 10 10 10 10 10 10 10 10 10 10 10 10 10 10 10 10 10 10 10 10 10 10 10 10 10 10 10 10 10 10 10 10 10 10 10 10 10 10 10 10 10 10 10 10 10 10 10 10 10 10 10 10 10 10 10 10 10 10 10 10 10 10 10 10 10 10 10 10 10 10 10 10 10 10 10 10 10 10 10 10 10 10 10 10 10 10 10 10 10 10 10 10 10 10 10 10 10 10 10 10 10 10 10 10 10 10 10 10 10 10 10 10 10 10 10 10 10 10 10 10 10 10 10 10 10 10 10 10 10 10 10 10 10 10 10 10 10 10 10 10 10 10 10 10 10 10 10 10 10 10 10 10 10 10 10 10 10 10 10 10 10 10 10 10 10 10 10 10 10 10 10 10 10 10 10 10 10 10 10 10 10 10 10 10 10 10 10 10 10 10 10 10 10 10 10 10 10 10 10 10 10 10 10 10 10 10 10 10 10 10 10 10 10 10 10 10 10 10 10 10 10 10 10 10 10 10 10 10 10 10 10 10 10 10 10 10 10 10 10 10 10 10 10 10 10 10 10 10 10 10 10 10 10 10 10 10 10 10 10 10 10 10 10 10 10 10 10 10 10 10 10 10 10 10 10 10 10 10 10 10 10 10 10 10 10 10 10 10 10 10 10 10 10 10 10 10 10 10 10 10 10 10 10 10 10 10 10 10 10 10 10 10 10 10 10 10 10 10 10 10 10 10 10 10 10 10 10 10 10 10 10 10 10 10 10 10 10 10 10 10 10 10 10 10 10 10 10 10 10 10 10 10 10 10 10 10 10 10 10 10 10 10 10 10 10 10 10 10 10 10 10 10 10 10 10 10 10 10 10 10 10 10 10 10 10 10 10 10 10 10 10 10 10 10 10 10 10 10 10 10 10 10 10 10 10 10 10 10 10 10 10 10 10 10 10 10 10 10 10 10 10 10 10 10 10 10 10 10 10 10 10 10 10 10 10 10 10 10 10 10 10 10 10 10 10 10 10 10 10 10 10 10 10 10 10 10 10 10 10 10 10 10 10 10 10 10 10 10 10 10 10 10 10 10 10 10 10 10 10 10 10 10 10 10 10 10 10 10 10 10 10 10 10 10 10 10 10 10 10 10 10 10 10 10 10 10 10 10 10 10 10 10 10 10 10 10 10 10 10 10 10 10 10 10 10 10 10 10 10 10 10 10 10 10 10 10 10 10 10 10 10 10 10 10 10 10 10 10 10 10 10 10 10 10 10 10 10 10 10 10 10 10 10 10 10 10 10 10 10 10 10 10 10 10 10 10 10 10 10 10 10 10 10 10 10 10 10 10 10 10 10 10 10 10 10 10 10 10 10 10 10 10 10 10 10 10 10 10 10 10 10 10 10 10 10 10 10 10 10 10 10 10 10 10 10 10 10 10 10 10 10 10 10 10 10 10 10 10 10 10 10 10 10 10 10 10 10 10 10 10 10 10 10 10 10 10 10 10 10 10 10 10 10 10 10 10 10 10 10 10 10 10 10 10 10 10 10 10 10 10 10 10 10 10 10 10 10 10 10 10 10 10 10 10 10 10 10 10 10 10 10 10 10 10 10 10 10 10 10 10 10 10 10 10 10 10 10 10 10 10 10 10 10 10 10 10 10 10 10 10 10 10 10 10 10 10 10 10 10 10 10 10 10 10 10 10 10 10 10 10 10 10 10 10 10 10 10 10 10 10 10 10 10 10 10 10 10 10 10 10 10 10 10 10 10 10 10 10 10 10 10 10 10 10 10 10 10 10 10 10 10 10 10 10 10 10 10 10 10 10 10 10 10 10 10 10 10 10 10 10 10 10 10 10 10 10 10 10 10 10 10 10 10 10 10 10 10 10 10 10 10 10 10 10 10 10 10 10 10 10 10 10 10 10 10 10 10 10 10 10 10 10 10 10 10 10 10 10 10 10 10 10 10 10 10 10 10 10 10 10 10 10 10 10 10 10 10 10 10 10 10 10 10 10 10 10 10 10 10 10 10 10 10 10 10 10 10 10 10 10 10 10 10 10 10 10 10 10 10 10 10 10 10 10 10 10 10 10 10 10 10 10 10 10 10 10 10 10 10 10 10 10 10 10 10 10 10 10 10 10 10 10 10 10 10 10 10 10 10 10 10 10 10 10 10 10 10 10 10 10 10 10 10 10 10 10 10 10 10 10 10 10 10 10 10 10 10 10 10 10 10 10 10 10 10 10 10 10 10 10 10 10 10 10 10 10 10 10 10 10 10 10 10 10 10 10 10 10 10 10 10 10 10 10 10 10 10 10 10 10 10 10 10 10 10 10 10 10 10 10 10 10 10 10 10 10 10 10 10 10 10 10 10 10 10 10 10 10 10 10 10 10 10 10 10 10 10 10 10 10 10 10 10 10 10 10 10 10 10 10 10 10 10 10 10 10 10 10 10 10 10 10 10 10 10 10 10 10 10 10 10 10 10 10 10 10 10 10 10 10 10 10 10 10 10 10 10 10 10 10 10 10 10 10 10 10 10 10 10 10 10 10 10 10 10 10 10 10 10 10 10 10 10 10 10 10 10 10 10 10 10 10 10 10 10 10 10 10 10 10 10 10 10 10 10 10 10 10 10 10 10 10 10 10 10 10 10 10 10 10 10 10 10 10 10 10 10 10 10 10 10 10 10 10 10 10 10 10 10 10 10 10 10 10 10 10 10 10 10 10 10 10 10 10 10 10 10 10 10 10 10 10 10 10 10 10 10 10 10 10 10 10 10 10 10 10 10 10 10 10 10 10 10 10 10 10 10 10 10 10 10 10 10 10 10 10 10 10 10 10 10 10 10 10 10 10 10 10 10 10 10 10 10 10 10 10 10 10 10 10 10 10 10 10 10 10 10 10 10 10 10 10 10 10 10 10 10 10 10 10 10 10 10 10 10 10 10 10 10 10 10 10 10 10 10 10 10 10 10 10 10 10 10 10 10 10 10 10 10 10 10 10 10 10 10 10 10 10 10 10 10 10 10 10 10 10 10 10 10 10 10 10 10 10 10 10 10 10 10 10 10 10 10 10 10 10 10 10 10 10 10 10 10 10 10 10 10 10 10 10 10 10 10 10 10 10 10 10 10 10 10 10 10 10 10 10 10 10 10 10 10 10 10 10 10 10 10 10 10 10 10 10 10 10 10 10 10 10 10 10 10 10 10 10 10 10 10 10 10 10 10 10 10 10 10 10 10 10 10 10 10 10 10 10 10 10 10 10 10 10 10 10 10 10 10 10 10 10 10 10 10 10 10 10 10 10 10 10 10 10 10 10 10 10 10 10 10 10 10 10 10 10 10 10 10 10 10 10 10 10 10 10 10 10 10 10 10 10 10 10 10 10 10 10 10 10 10 10 10 10 10 10 10 10 10 10 10 10 10 10 10 10 10 10 10 10 10 10 10 10 10 10 10 10 10 10 10 10 10 10 10 10 10 10 10 10 10 10 10 10 10 10 10 10 10 10 10 10 10 10 10 10 10 10 10 10 10 10 10 10 10 10 10 10 10 10 10 10 10 10 10 10 10 10 10 10 10 10 10 10 10 10 10 10 10 10 10 10 10 10 10 10 10 10 10 10 10 10 10 10 10 10 10 10 10 10 10 10 10 10 10 10 10 10 10 10 10 10 10 10 10 10 10 10 10 10 10 10 10 10 10 10 10 10 10 10 10 10 10 10 10 10 10 10 10 10 10 10 10 10 10 10 10 10 10 10 10 10 10 10 10 10 10 10 10 10 10 10 10 10 10 10 10 10 10 10 10 10 10 10 10 10 10 10 10 10 10 10 10 10 10 10 10 10 10 10 10 10 10 10 10 10 10 10 10 10 10 10 10 10 10 10 10 10 10 10 10 10 10 10 10 10 10 10 10 10 10 10 10 10 10 10 10 10 10 10 10 10 10 10 10 10 10 10 10 10 10 10 10 10 10 10 10 10 10 10 10 10 10 10 10 10 10 10 10 10 10 10 10 10 10 10 10 10 10 10 10 10 10 10 10 10 10 10 10 10 10 10 10 10 10 10 10 10 10 10 10 10 10 10 10 10 10 10 10 10 10 10 10 10 10 10 10 10 10 10 10 10 10 10 10 10 10 10 10 10 10 10 10 10 10 10 10 10 10 10 10 10 10 10 10 10 10 10 10 10 10 10 10 10 10 10 10 10 10 10 10 10 10 10 10 10 10 10 10 10 10 10 10 10 10 10 10 10 10 10 10 10 10 10 10 10 10 10 10 10 10 10 10 10 10 10 10 10 10 10 10 10 10 10 10 10 10 10 10 10 10 10 10 10 10 10 10 10 10 10 10 10 10 10 10 10 10 10 10 10 10 10 10 10 10 10 10 10 10 10 10 10 10 10 10 10 10 10 10 10 10 10 10 10 10 10 10 10 10 10 10 10 10 10 10 10 10 10 10 10 10 10 10 10 10 10 10 10 10 10 10 10 10 10 10 10 10 10 10 10 10 10 10 10 10 10 10 10 10 10 10 10 10 10 10 10 10 10 10 10 10 10 10 10 10 10 10 10 10 10 10 10 10 10 10 10 10 10 10 10 10 10 10 10 10 10 10 10 10 10 10 10 10 10 10 10 10 10 10 10 10 10 10 10 10 10 10 10 10 10 10 10 10 10 10 10 10 10 10 10 10 10 10 10 10 10 10 10 10 10 10 10 10 10 10 10 10 10 10 10 10 10 10 10 10 10 10 10 10 10 10 10 10 10 10 10 10 10 10 10 10 10 10 10 10 10 10 10 10 10 10 10 10 10 10 10 10 10 10 10 10 10 10 10 10 10 10 10 10 10 10 10 10 10 10 10 10 10 10 10 10 10 10 10 10 10 10 10 10 10 10 10 10 10 10 10 10 10 10 10 10 10 10 10 10 10 10 10 10 10 10 10 10 10 10 10 10 10 10 10 10 10 10 10 10 10 10 10 10 10 10 10 10 10 10 10 10 10 10 10 10 10 10 10 10 10 10 10 10 10 10 10 10 10 10 10 10 10 10 10 10 10 10 10 10 10 10 10 10 10 10 10 10 10 10 10 10 10 10 10 10 10 10 10 10 10 10 10 10 10 10 10 10 10 10 10 10 10 10 10 10 10 10 10 10 10 10 10 10 10 10 10 10 10 10 10 10 10 10 10 10 10 10 10 10 10 10 10 10 10 10 10 10 10 10 10 10 10 10 10 10 10 10 10 10 10 10 10 10 10 10 10 10 10 10 10 10 10 10 10 10 10 10 10 10 10 10 10 10 10 10 10 10 10 10 10 10 10 10 10 10 10 10 10 10 10 10 10 10 10 10 10 10 10 10 10 10 10 10 10 10 10 10 10 10 10 10 10 10 10 10 10 10 10 10 10 10 10 10 10 10 10 10 10 10 10 10 10 10 10 10 10 10 10 10 10 10 10 10 10 10 10 10 10 10 10 10 10 10 10 10 10 10 10 10 10 10 10 10 10 10 10 10 10 10 10 10 10 10 10 10 10 10 10 10 10 10 10 10 10 10 10 10 10 10 10 10 10 10 10 10 10 10 10 10 10 10 10 10 10 10 10 10 10 10 10 10 10 10 10 10 10 10 10 10 10 10 10 10 10 10 10 10 10 10 10 10 10 10 10 10 10 10 10 10 10 10 10 10 10 10 10 10 10 10 10 10 10 10 10 10 10 10 10 10 10 10 10 10 10 10 10 10 10 10 10 10 10 10 10 10 10 10 10 10 10 10 10 10 10 10 10 10 10 10 10 10 10 10 10 10 10 10 10 10 10 10 10 10 10 10 10 10 10 10 10 10 10 10 10 10 10 10 10 10 10 10 10 10 10 10 10 10 10 10 10 10 10 10 10 10 10 10 10 10 10 10 10 10 10 10 10 10 10 10 10 10 10 10 10 10 10 10 10 10 10 10 10 10 10 10 10 10 10 10 10 10 10 10 10 10 10 10 10 10 10 10 10 10 10 10 10 10 10 10 10 10 10 10 10 10 10 10 10 10 10 10 10 10 10 10 10 10 10 10 10 10 10 10 10 10 10 10 10 10 10 10 10 10 10 10 10 10 10 10 10 10 10 10 10 10 10 10 10 10 10 10 10 10 10 10 10 10 10 10 10 10 10 10 10 10 10 10 10 10 10 10 10 10 10 10 10 10 10 10 10 10 10 10 10 10 10 10 10 10 10 10 10 10 10 10 10 10 10 10 10 10 10 10 10 10 10 10 10 10 10 10 10 10 10 10 10 10 10 10 10 10 10 10 10 10 10 10 10 10 10 10 10 10 10 10 10 10 10 10 10 10 10 10 10 10 10 10 10 10 10 10 10 10 10 10 10 10 10 10 10 10 10 10 10 10 10 10 10 10 10 10 10 10 10 10 10 10 10 10 10 10 10 10 10 10 10 10 10 10 10 10 10 10 10 10 10 10 10 10 10 10 10 10 10 10 10 10 10 10 10 10 10 10 10 10 10 10 10 10 10 10 10 10 10 10 10 10 10 10 10 10 10 10 10 10 10 10 10 10 10 10 10 10 10 10 10 10 10 10 10 10 10 10 10 10 10 10 10 10 10 10 10 10 10 10 10 10 10 10 10 10 10 10 10 10 10 10 10 10 10 10 10 10 10 10 10 10 10 10 10 10 10 10 10 10 10 10 10 10 10 10 10 10 10 10 10 10 10 10 10 10 10 10 10 10 10 10 10 10 10 10 10 10 10 10 10 10 10 10 10 10 10 10 10 10 10 10 10 10 10 10 10 10 10 10 10 10 10 10 10 10 10 10 10 10 10 10 10 10 10 10 10 10 10 10 10 10 10 10 10 10 10 10 10 10 10 10 10 10 10 10 10 10 10 10 10 10 10 10 10 10 10 10 10 10 10 10 10 10 10 10 10 10 10 10 10 10 10 10 10 10 10 10 10 10 10 10 10 10 10 10 10 10 10 10 10 10 10 10 10 10 10 10 10 10 10 10 10 10 10 10 10 10 10 10 10 10 10 10 10 10 10 10 10 10 10 10 10 10 10 10 10 10 10 10 10 10 10 10 
        </DataArray>
      </Cells>
      <PointData Scalars="DISPLACEMENT_X1">
        <DataArray type="Float64" Name="STRESS_XX" format="ascii">
          4.469218502242e-07 3.963165594219e-07 -4.141367769352e-08 -3.645360977226e-06 -3.669574906754e-06 -3.937545257671e-06 -3.729665704001e-06 -3.070855318970e-06 -3.392196927384e-06 -6.181288942623e-07 -7.238611714971e-07 -8.690927602903e-07 -2.374226713483e-06 -2.445595949554e-06 -2.918570132805e-06 -3.716639705286e-06 -3.144797575147e-06 -4.162306930056e-06 -3.152124046402e-06 -3.629212932004e-06 -2.886146538742e-06 -2.177081076452e-06 -2.494267936045e-06 -4.977076862941e-06 -5.112391952370e-06 -4.713673537937e-06 -3.200635705379e-06 -4.185857741904e-06 -3.777026251190e-06 -1.617533810598e-07 -6.622395428085e-08 -9.353755784739e-07 -1.378929312759e-06 -2.035160820905e-06 -1.376605125109e-06 -3.810824615541e-06 -2.957004253901e-06 -4.358908894645e-06 -1.943868860173e-06 -1.610835415447e-06 -9.563700063244e-07 -1.789922407328e-07 -1.280429808848e-06 -2.136432458386e-06 -3.526965547497e-06 -4.014721877610e-06 -3.831686316606e-06 -3.054257937155e-06 -3.519381886740e-06 -3.050075926077e-06 -3.429958478248e-06 -3.919776281099e-06 -2.092855378185e-06 -2.808547733935e-06 -4.206866336768e-06 -3.616533283378e-06 -4.222833612629e-06 -2.163290198827e-08 -7.288061387311e-07 -1.707309234088e-06 -1.647510568388e-06 -4.296317221196e-06 -4.622994670418e-06 -8.293240807833e-07 -1.593363521775e-06 -4.459474167968e-06 -4.606714932187e-06 -3.373092527781e-06 -3.320693377518e-06 -1.818631828465e-06 -1.127164434900e-06 -1.797567036480e-06 -2.074299811990e-06 -2.038744535193e-06 -2.500434230453e-06 -2.665401450536e-06 -4.913348449875e-06 -4.845440708667e-06 -2.613228671796e-06 -1.664326537180e-06 -3.264588491773e-06 -3.324369263890e-06 -2.550937421255e-06 -4.536094907523e-06 -4.859187067274e-06 -1.573267600979e-06 -1.902705608847e-06 -7.228985299891e-07 -1.154112955426e-06 -2.892509112562e-06 -4.517796331540e-06 -2.278165449580e-06 6.770641741828e-07 6.489803281588e-06 2.105282253358e-06 -2.162953824284e-06 -2.393813605972e-06 -2.740623795559e-06 -3.962203252507e-06 -4.716019551674e-06 -2.146013951897e-06 -2.229977405695e-06 -4.428782149375e-06 3.861412896100e-07 -1.418905044422e-06 -2.581797670929e-06 -1.458857717533e-06 -1.057300576233e-06 -3.215982955561e-06 4.162055696829e-07 9.966155130788e-08 9.169504689935e-09 -1.494146129911e-06 -1.620364549500e-06 -2.099732615276e-06 -2.183018701748e-06 -1.818357266833e-06 -1.675212038599e-06 -5.288812590099e-07 -7.111994490611e-07 -4.633458644913e-07 -2.087255285765e-06 -1.897770096429e-06 -2.206454379946e-06 -2.454301954577e-06 -1.397530626244e-06 -2.206483270634e-06 -1.812582247673e-06 -2.736412206655e-06 -5.397879315591e-07 -1.452414897981e-07 -4.389056524889e-07 -3.052825061249e-06 -3.126593371094e-06 -3.136207172553e-06 -2.602440455896e-06 -2.847938266252e-06 -2.581493552975e-06 -1.283902147560e-07 3.034420740949e-07 3.755902232191e-07 -1.550451295432e-06 -1.683204285078e-06 -1.088426515748e-06 -2.344858691335e-06 -1.208276353538e-06 -2.548690149669e-06 -1.274190548751e-06 -7.771754838496e-07 2.278698023050e-07 1.437828762940e-06 4.542747005972e-07 -5.608593051913e-07 -2.211373416181e-06 -2.894938281243e-06 -2.272835661898e-06 -2.102797799700e-06 -2.400254210171e-06 -2.024006310849e-06 -2.199590737043e-06 -2.397299273279e-06 -9.806681761710e-07 -1.527641141712e-06 -2.865406444563e-06 -1.954275008444e-06 -2.568861326117e-06 -5.951738246279e-08 3.464506416565e-08 -3.090107928797e-07 2.986093838428e-08 -2.684169775076e-06 -2.968602523465e-06 3.035848209857e-07 1.548241305827e-07 -2.833480732415e-06 -3.027167967673e-06 -2.061739816976e-06 -2.265638852409e-06 -1.636620212464e-06 -1.309163046888e-06 -1.664276068810e-06 -1.642673658727e-06 -1.846228044703e-06 -1.371499552949e-06 -9.710679293430e-07 -3.096060320673e-06 -3.263056596703e-06 -4.883871477605e-07 -3.321027113312e-07 -2.251352620271e-06 -2.478700659185e-06 -1.833612731999e-06 -2.932331661872e-06 -3.072668034803e-06 -4.668928677750e-07 -3.435124111088e-07 -8.984513811446e-07 -1.088213311980e-06 -1.124691983323e-06 -3.243534225272e-06 -1.304662481424e-07 1.355863420698e-06 6.883563638057e-06 3.192972135935e-06 -4.382361380451e-07 -1.965278376750e-06 -1.890243605196e-06 -2.602646101894e-06 -3.046608153563e-06 -6.153126279037e-07 4.356269583744e-09 -2.992826807252e-06 1.338715977157e-06 -4.570507765836e-07 -1.252040811834e-06 -1.321888555950e-06 -1.156609316503e-06 -2.319629532307e-06 4.348071051356e-08 9.218612214331e-08 6.405235090570e-06 5.705922495035e-06 5.494468639696e-07 1.188618055092e-07 -1.916276004543e-08 -7.677140520009e-09 -7.868786104185e-08 8.262487013096e-08 1.154212279175e-05 1.708665267193e-05 1.664322393665e-05 6.226561200714e-06 1.099924948752e-05 1.254610228552e-05 3.952101334008e-06 9.307813139200e-06 8.171654351408e-06 4.001189359347e-06 7.871463743333e-06 8.599830001084e-06 -1.386708742121e-07 -1.742497999224e-07 -7.114095734728e-08 -3.543016886542e-07 -2.169026063203e-07 -1.959686974177e-07 1.337987429828e-06 1.673154403174e-07 3.419524880292e-07 5.225102779749e-07 6.316847844801e-08 5.127827377531e-08 1.157291357396e-05 1.732519492115e-05 1.741019763564e-05 9.800529895780e-06 1.500956271657e-05 1.580777006812e-05 3.192823916887e-07 -9.218229957142e-08 4.722210237655e-08 -4.076891075445e-09 5.179541099724e-08 8.044934244703e-08 5.445807592312e-06 1.030528575948e-05 9.875760064985e-06 7.801961834398e-06 1.217852139526e-05 1.455370306126e-05 2.600860129536e-07 2.154088019067e-10 -1.486241156812e-07 5.288156078715e-06 9.442563705756e-06 1.043104029789e-05 4.600514734597e-07 -4.499373688442e-09 9.977675257905e-06 1.590691047334e-05 1.467099012905e-05 4.504029985885e-06 4.813825344060e-06 5.479810849825e-06 2.702860557443e-06 2.521464749159e-06 1.809576941181e-06 -2.278843353668e-06 -3.474428813914e-07 8.173177035824e-06 1.292322541839e-05 1.251439096224e-05 6.589092173156e-06 6.667840770636e-06 8.040347559137e-06 6.417515690386e-06 5.850852287044e-06 7.248178481375e-06 5.715767842644e-06 6.696018573670e-06 1.237058259052e-05 1.139677119129e-05 4.231131385257e-07 9.416995092091e-07 8.857506534750e-07 1.328201175340e-07 9.314879252129e-07 1.436705365771e-06 1.663537984016e-06 1.239530592575e-06 2.218009994078e-06 2.531943235983e-06 2.714509082957e-06 2.314029157002e-06 6.177779611822e-07 6.886596644643e-07 1.821081047071e-07 1.282660733182e-07 -5.748849883050e-07 -4.595843625665e-07 -6.293364485099e-07 5.765794609327e-06 1.042512675956e-05 8.503005656074e-06 4.964414521462e-06 9.587121956460e-06 9.305199607941e-06 -1.925175477621e-08 -2.844584049052e-07 -1.560105490720e-07 1.690264947266e-07 8.085739063828e-07 -6.785871220000e-07 -1.082991952072e-06 1.664368126776e-06 7.715216406486e-07 5.012402948997e-07 1.808401746326e-06 3.084777908705e-06 -1.888467784816e-07 -3.008743899950e-07 3.308111875988e-06 3.522906247981e-06 4.879565776328e-06 4.190400418312e-06 4.134100455122e-06 8.214380684842e-06 -2.075661883359e-07 -1.794485933922e-07 4.270967415263e-06 8.663135238803e-06 1.154712597414e-05 1.731888635207e-05 1.595606840292e-05 9.619114528607e-06 9.518355762158e-06 3.541103560304e-06 2.987089000002e-06 1.645145260218e-06 1.106057418699e-05 8.599851236653e-06 8.787005432276e-06 1.024129893856e-05 7.814757738267e-06 1.197730430058e-06 9.106448167021e-07 6.409043118015e-07 1.346268686753e-06 8.396723011286e-07 1.407626732212e-06 1.538816606772e-06 1.948348737161e-07 2.752155170756e-07 3.399048034013e-07 5.443096950349e-07 6.958994350082e-07 -1.212682844782e-06 -1.487184906433e-06 -8.628481879937e-07 4.681722436606e-07 -3.056308773767e-07 -6.709880513837e-08 -4.563542962780e-07 -1.555031466228e-07 6.828205941038e-07 2.201105740488e-06 3.296453261559e-06 2.721179916723e-06 1.907726801689e-06 1.776839384959e-06 1.534016240660e-06 1.213275280901e-06 6.077431809596e-06 6.107088164086e-06 1.027394394204e-05 2.360691965316e-06 1.616348946889e-06 1.459557984547e-06 3.796173685720e-06 2.902154869945e-06 2.836384652512e-06 3.718424113475e-06 2.421303851739e-06 1.961066605668e-06 3.500612927137e-06 4.431957919178e-06 5.775736150800e-06 3.585802905152e-06 2.985403422493e-06 -2.271272419326e-07 -4.763294965867e-07 -7.060794823554e-07 -2.929672505185e-07 1.529358043095e-06 1.291008612488e-06 9.559138775025e-07 2.194537803594e-06 1.280027603201e-06 9.547729377853e-07 1.595522170186e-06 4.339754965314e-06 4.360088123730e-06 3.157822408849e-06 6.374862228221e-08 -1.618609868359e-07 4.417688073344e-06 3.276772195384e-06 1.397308289638e-06 1.350503167741e-06 2.263685916078e-06 1.378251779914e-06 1.213659867457e-06 1.571996464319e-06 7.991807958427e-07 1.050827399096e-06 4.925305170131e-07 7.475235360784e-07 2.209223396275e-07 1.531870966701e-07 3.037529669303e-06 2.470171496238e-06 2.805386803819e-06 4.080962260313e-06 3.882270634494e-06 4.525865939797e-07 -1.053857974714e-07 1.566642253874e-07 5.457686439500e-07 1.101975953806e-06 1.359342707927e-06 1.198636375340e-07 1.827150413636e-06 2.348017670221e-06 -8.609608024044e-07 -2.483016593224e-07 -8.338978582718e-07 -6.992224018676e-07 -4.415385933419e-07 -3.397571343378e-07 -8.889702815989e-07 -6.828575059971e-07 2.390914925105e-06 2.696247493636e-06 3.814058840016e-06 1.151875865801e-07 5.825454665320e-07 3.858778514921e-07 -1.537005971978e-07 -1.539296172008e-07 2.031992125863e-06 6.796584054077e-06 4.535887806097e-07 1.544597842222e-08 3.157739130241e-06 7.707644369267e-06 1.893878060266e-06 2.085695721712e-06 2.180273966220e-06 5.569403868543e-06 1.064716113467e-05 9.765171368858e-06 4.323012127038e-07 1.254832276606e-07 4.090068863594e-07 3.089637153299e-07 1.953617369802e-07 1.555729564432e-07 7.747358456397e-07 1.017643849928e-06 1.856167750850e-06 1.507934272856e-07 2.921240352579e-07 1.554348308767e-07 6.706999821082e-07 4.993163579492e-07 -2.022143863714e-06 -4.100165600268e-07 4.499017964695e-06 3.626028019510e-06 3.460934818955e-06 4.128742889600e-06 -6.263250823905e-07 -7.067019330472e-07 8.556895955918e-06 3.191878041337e-07 2.257239729945e-07 3.156535109400e-06 2.644830807062e-06 5.447491254800e-06 5.751827551071e-06 1.280681059481e-05 1.769375456255e-05 3.357280038641e-06 3.718989990532e-06 3.972014936050e-06 2.921455024563e-06 -1.254866896320e-07 3.123781757708e-07 -1.545279340289e-07 1.479090624978e-06 6.243763908268e-07 9.321786152859e-08 -5.636730391186e-07 5.227839938726e-08 -1.516565628457e-06 -4.351794165683e-07 -1.385155843020e-06 -2.284935253716e-06 9.641033566118e-07 1.426137275881e-06 2.086763550876e-06 1.826174624372e-06 2.712990000752e-06 -5.620930458120e-08 -2.511080489551e-07 1.804788769791e-07 -6.223009698843e-07 4.124007289737e-06 5.169963311236e-06 6.843798044358e-06 1.025760533532e-05 1.594543896099e-07 1.214532145655e-05 1.671624264602e-05 1.042284967096e-05 1.422776940352e-05 6.179381274822e-07 1.064583542654e-06 1.221582418628e-06 4.570929248734e-07 2.635980379425e-06 3.626185840192e-06 3.905766873813e-06 3.487051923755e-07 1.802016464936e-07 4.859430426517e-07 -3.062097767940e-08 -5.880934008909e-07 -8.522805774458e-07 9.515001662480e-06 1.480795725639e-05 6.262102271208e-06 8.093925823234e-07 1.253653289821e-06 6.145120088835e-07 3.262632492216e-07 -9.398375100685e-07 -1.065127275357e-06 8.636933172697e-07 3.363953767395e-08 1.276022213094e-06 4.115120359286e-08 6.152189423761e-07 -4.432421954737e-07 -2.783385160334e-07 -1.587517215956e-06 -1.676569032803e-06 2.717424880869e-06 3.970850553999e-06 3.563841527369e-06 5.347563922046e-06 4.709692069464e-06 6.212938044859e-07 2.451366070133e-07 5.481436896500e-06 3.841462996294e-06 5.539194842289e-06 7.777932036311e-06 2.710480426364e-06 3.825897301783e-06 2.795272695858e-06 1.858438031614e-06 1.242140386981e-05 9.877058620132e-06 2.062701110789e-06 1.222738283246e-06 2.046604714357e-06 3.644841216014e-06 3.286558291056e-06 2.500739348192e-06 2.704544078883e-06 8.182487723875e-06 8.823352242763e-06 7.326627398256e-06 7.559521322434e-06 5.119849420611e-08 -1.768174446119e-07 1.885259162938e-07 6.033295873104e-06 6.239791271361e-06 1.083371707959e-05 4.809824915834e-06 -4.706282355611e-07 6.684877425274e-07 1.877389069686e-06 2.135495150067e-06 -4.273931117798e-07 -7.651444179152e-07 -1.184320867746e-06 3.130155533610e-06 2.152599626070e-06 1.549370531006e-06 -2.066806580103e-07 -3.163677306185e-07 6.952788778576e-09 2.896620981000e-06 6.839130859415e-06 -3.353916861866e-07 -4.419323382502e-07 3.762179853449e-06 7.469294295613e-06 2.286565793745e-07 -1.124455546157e-07 5.273841228276e-07 8.707205060669e-08 1.654575321937e-07 9.462689064173e-07 1.249543173696e-05 -4.424402106906e-07 -2.116706247316e-07 -6.176341561790e-07 -7.820608009190e-07 5.470949054774e-07 1.426359319496e-06 1.070481739622e-06 7.127894412978e-08 4.728928200137e-06 6.816678344807e-06 1.994594379101e-06 2.121833379113e-06 2.119377977235e-06 3.827423274672e-06 9.103552890484e-06 -7.245360361057e-10 6.528621564349e-08 4.166060602174e-06 1.003779415557e-05 9.691327238196e-07 5.396981383280e-07 2.401774545630e-06 1.429736337322e-06 6.196217525626e-06 2.664359729139e-07 8.297589097298e-07 1.212793418996e-06 7.368869996026e-06 -4.921584159471e-07 5.171915485399e-06 4.490290047343e-06 2.957980443302e-07 3.595887866359e-06 -4.735894111794e-07 3.504995999245e-06 2.061586461011e-06 8.833661990071e-06 7.280910197061e-06 7.695629037100e-06 -1.381457990795e-06 -1.459880281497e-06 -1.287937781721e-06 -6.020342480465e-07 -3.878880757332e-07 -5.033097158095e-07 8.701406386662e-06 9.961768780772e-06 -1.953616822018e-07 6.001244148780e-06 3.391656726670e-06 7.593209391202e-07 1.128983203136e-06 5.687673408667e-06 5.837145049008e-06 9.705177613942e-09 3.376544434334e-06 3.724159488350e-06 1.192318637330e-05 6.350695074945e-06 5.993514640280e-06 5.236037506921e-06 1.270117604741e-07 4.716950483171e-07 -7.959182794319e-08 4.586120011248e-06 4.363099922096e-06 8.017525768072e-06 9.365892739818e-06 1.982832123441e-06 1.094137240365e-06 2.919232862849e-08 -1.858233942212e-06 -1.657108794414e-06 1.573924364009e-07 1.533540221794e-07 1.388965744372e-05 1.832600510306e-05 2.075516860946e-06 1.341852707134e-06 1.904918419922e-06 3.750315594520e-06 5.176179594502e-06 4.485008854556e-06 2.740556592139e-06 2.120727192177e-06 -1.885047610154e-06 -4.198608925717e-07 7.322590560157e-06 1.118410549442e-06 -3.618428571291e-07 2.753121868371e-06 1.120246149812e-07 6.143180502812e-07 5.503544775465e-07 3.693820508725e-09 1.465449761540e-06 -8.803920513670e-07 4.853598918094e-06 6.209223593549e-06 1.161755058228e-06 4.093728783398e-06 6.873103524304e-06 5.731862804422e-06 7.680914697235e-07 9.156553287558e-06 6.716491802474e-06 1.112642581491e-05 4.571918368927e-07 1.452753009001e-07 1.938084350191e-07 -7.067628978360e-08 1.294129804600e-05 2.777758452884e-07 1.461296569557e-06 -3.656177648637e-07 -5.644830225471e-07 8.084309768779e-07 1.718445270230e-06 1.156552773729e-06 -7.158814165760e-07 1.071483836827e-06 1.322688605517e-06 3.526377958307e-06 4.803752790838e-06 1.629998262920e-06 7.039350057525e-07 6.670168389967e-07 1.528548653503e-06 5.237783476736e-07 1.663268274410e-06 -5.266014223623e-08 4.689470323171e-08 5.437133195348e-06 9.004632389065e-07 1.991927366163e-06 8.438962972572e-06 4.603087803664e-07 1.329212784926e-06 1.354025160105e-06 1.968903933928e-06 1.896600978589e-06 -4.424851440316e-07 -2.374273456322e-06 -4.983587159736e-07 -1.097057213036e-06 -5.295473314293e-07 4.672826603066e-07 1.004634317573e-05 6.638478502234e-06 8.909179623807e-06 -6.103877788725e-07 -3.919431540211e-07 -1.478036609351e-06 -2.971017723199e-07 6.011833119366e-07 2.988300823858e-06 7.671750275525e-06 6.812161378959e-06 2.262036432240e-07 1.999880319126e-07 4.312848445339e-06 -4.692744213960e-08 2.779092346418e-07 1.083291230243e-05 2.803486104893e-06 5.270292182225e-07 5.497451878216e-06 4.608044823249e-07 1.587127157600e-07 6.536432767918e-06 -5.451931720894e-07 -8.671610350082e-07 8.578186127650e-07 7.285461363017e-06 6.496696195038e-06 1.135932428860e-06 2.586759014160e-06 1.907880230520e-07 1.688398869678e-06 8.703423315382e-09 2.463805682170e-06 9.903635908725e-07 2.934371508572e-06 -1.077718383868e-06 1.135349380214e-06 6.975328417549e-06 1.921531534007e-06 4.566379818272e-06 -2.148690223048e-06 -4.183281129236e-07 2.178444899315e-06 -3.464017695650e-07 -1.606853612390e-07 -2.718767935722e-07 -2.632012351030e-07 -1.932279978985e-07 -2.379123005516e-07 -2.751196008788e-07 -3.602257013174e-07 -6.695811071314e-07 -5.711173309513e-07 -2.102251608349e-07 -7.042745826031e-08 -1.836156624154e-07 -2.569293865810e-07 -2.646919852683e-07 -3.560350736083e-07 -3.336562505015e-07 -2.172537374889e-07 -2.732639139783e-07 -1.537386200074e-07 -1.272928331630e-07 -2.281303072079e-07 -3.294059597684e-07 -1.312978788285e-07 -6.478496026061e-07 -2.169320903899e-07 -8.779474211826e-08 -2.066787787333e-07 -1.536612929491e-07 -9.897035717949e-08 -1.886187843938e-07 -3.421166999572e-07 1.789260144306e-07 2.168062888478e-08 -1.314066213867e-08 8.877104020385e-07 7.451802711185e-07 2.015047417814e-07 -5.863564442580e-07 -4.921413549649e-07 -4.666836080543e-07 1.489047050530e-07 -1.142328646120e-07 -6.799742913177e-08 2.463701895827e-07 2.825980542169e-08 1.629111716935e-07 2.945364357150e-07 3.962856919899e-07 6.174997409699e-07 -4.669091908167e-08 -6.613562669363e-08 -1.196520990436e-07 1.170931073090e-08 -2.316619100403e-07 -1.895645323676e-07 1.273818529176e-08 -3.106379800795e-07 6.620800988936e-08 1.213013267821e-07 1.337058538454e-07 2.786402899524e-07 8.769704279247e-07 2.671119790046e-07 3.227536139461e-07 1.089973289650e-07 1.697190120294e-07 6.400371566073e-09 -2.134639996123e-07 -4.057753861315e-07 -2.554280786882e-08 -3.309829298291e-07 1.565268738081e-07 6.597112394640e-08 -5.143561206585e-09 -1.336376728784e-07 3.022176944679e-08 6.867732210086e-09 -3.667019827897e-07 -5.468542910059e-07 -2.060630158112e-07 -1.634633503519e-07 -4.619481074207e-07 -1.819655188433e-07 6.811078623326e-08 -3.000942040791e-07 -1.589348745734e-08 5.675751105956e-07 -3.678962020655e-07 7.776551596993e-07 9.275180759946e-07 3.866026435280e-07 2.510337158886e-08 -4.888570243426e-07 1.059160374221e-08 -1.466477581485e-07 -1.608058797527e-07 6.956887683213e-08 1.927529671677e-07 -1.550210213530e-07 1.077479900364e-08 -7.064901941245e-07 -1.049445280874e-06 -4.685131125726e-07 -5.970015764338e-07 -6.207400133660e-07 -5.007194335086e-07 -6.458768251585e-07 -6.273650997960e-07 -5.569141201534e-07 -6.366934173465e-07 -5.491646514323e-07 -5.482121476774e-07 -6.381742554037e-07 -6.763012544949e-07 -5.819736014089e-07 -7.161849663582e-07 -4.069566995242e-07 -5.784631814443e-07 -5.137720305982e-07 -5.857118727063e-07 -6.670224202976e-07 -8.649754118394e-07 2.421034953848e-07 -7.500189691534e-09 2.230251324361e-07 -6.177534398392e-07 -7.855786903950e-07 -7.193910070609e-07 -5.946495059324e-07 -7.659259735584e-07 -6.729956146071e-07 -4.647831437129e-07 -4.929600231351e-07 -6.706464613278e-07 -1.638251205804e-07 -2.066933774136e-07 -2.023315955668e-07 -1.154307028036e-07 -2.975597276972e-07 -2.010270175138e-07 5.825973607247e-07 2.514755267358e-07 4.214283004641e-07 -2.502796181044e-07 -4.604650472473e-07 -4.022300367964e-07 2.898861377313e-07 9.391332729998e-08 6.554045564044e-08 -4.254020833372e-07 -7.293865796972e-07 -6.920149298632e-07 -2.654770145198e-07 -4.127277181354e-07 -5.286663669057e-07 -9.813971569797e-08 -1.504872696382e-07 -2.637148962166e-07 -4.512474262993e-07 -6.806366419612e-07 -7.693565963073e-07 -4.008521157968e-07 -6.244470803033e-07 -6.186872149779e-07 -3.956538708808e-07 -5.980222935372e-07 -6.104978947136e-07 1.133511578303e-07 3.209402426485e-07 3.243412747267e-07 -4.559340443460e-07 -6.353476186642e-07 -3.510581038831e-07 -5.329741966777e-07 -4.867388643618e-07 -6.123134974464e-07 -7.768115537981e-07 -5.506076122449e-07 -5.589393708168e-07 -6.357053185191e-07 -5.600815481621e-07 -4.232911509823e-07 -5.790639472740e-07 -3.740194097028e-07 -4.918269879756e-07 -2.502478934198e-07 -4.365811699566e-07 -4.487106756971e-07 -7.056526264550e-08 1.535217371007e-07 -4.564825985061e-07 -5.763089654880e-08 -1.276050351804e-08 2.623355394150e-07 1.335819780716e-08 -4.538136996191e-07 -1.896347042359e-07 -5.038866518604e-07 -5.749565223923e-07 -3.864609352237e-07 -2.203321572229e-07 -4.414821920949e-07 -1.294306735813e-06 -7.946577933830e-07 -8.827489294353e-07 -9.878428419461e-07 -8.989933720042e-07 -1.053014944426e-06 -1.055540281033e-06 -8.596680096673e-07 -9.398630816331e-07 -9.575855351379e-07 -1.217520281271e-06 -1.344895932736e-06 -1.148053249615e-06 -7.846884858430e-07 -9.752976460023e-07 -1.050413810747e-06 -8.729296038975e-07 -1.024607495366e-06 -1.010230311503e-06 -1.207728749453e-06 -1.285007985599e-06 -1.256386156075e-06 -1.035219928052e-07 -2.574369506212e-07 -5.815696956605e-07 -6.590928352423e-07 -1.085765728585e-06 -1.013605962896e-06 -9.969511144033e-07 -1.337951432756e-06 -1.320137190477e-06 -1.047943279807e-06 -1.339617027677e-06 -1.423637024474e-06 -4.252358715028e-07 -8.598439609579e-07 -8.019645898472e-07 -1.181323597610e-06 -1.219457239903e-06 -1.569658422894e-06 -9.733310063610e-07 -1.244624394007e-06 -1.096818929507e-06 -7.696974984410e-07 -1.048408549704e-06 -9.873416131592e-07 6.213799267722e-08 -2.158454843995e-07 -3.660573617559e-07 -3.383251511909e-07 -6.934370120584e-07 -6.439247301790e-07 -2.939291949093e-07 -4.984715773975e-07 -5.313294045850e-07 -5.190360510523e-07 -8.361179867479e-07 -5.941635081127e-07 -9.705164122353e-07 -1.233358707431e-06 -1.217102582915e-06 -1.024307116104e-06 -1.365109275842e-06 -1.316761022885e-06 -9.693115579819e-07 -1.157299337014e-06 -1.288068174676e-06 -8.133575132666e-07 -1.012086366477e-06 -9.006462942477e-07 -1.203847225708e-06 -7.346928554172e-07 -9.718590249970e-07 -2.356007534251e-08 -4.659027436071e-07 -4.787690471482e-07 -6.810962362004e-07 -1.054872109515e-06 -1.212775814774e-06 -1.262971387195e-06 -8.389723295347e-07 -1.000296575595e-06 -8.886662423713e-07 -7.653983529939e-07 -8.935295386555e-07 -8.123076281545e-07 -1.066762381097e-06 -9.210391834991e-07 -1.101921667049e-06 -1.014249534936e-06 -1.331895801352e-07 -3.167868074034e-07 -4.460767392134e-07 -1.065889049023e-06 -9.543487768937e-07 -1.008221887977e-06 -7.097313583504e-07 -6.097421628345e-07 -5.404373496868e-07 -2.967661871430e-07 -7.001092440229e-07 -1.150503613987e-06 -2.301114358073e-06 -1.649495028492e-06 -1.262038190220e-06 -1.558315460493e-06 -1.487153836127e-06 -1.396761691700e-06 -1.639262713620e-06 -1.628775368534e-06 -1.260618284081e-06 -1.441223969234e-06 -1.382788337168e-06 -1.339365627739e-06 -1.483893912783e-06 -1.495883965497e-06 -1.453044971337e-06 -1.562602050346e-06 -1.606486680720e-06 -1.845691166539e-06 -1.983819801074e-06 -1.928469451610e-06 -1.492515030677e-06 -1.781951236938e-06 -1.759639163890e-06 -1.428778782427e-06 -1.627722841365e-06 -1.558483183987e-06 -1.689322799277e-06 -1.749723899954e-06 -1.828465133931e-06 -1.661283820250e-06 -1.802876442605e-06 -1.796298034466e-06 -1.947740844240e-06 -2.138282215255e-06 -2.268789857022e-06 -1.594843536346e-06 -1.760151913111e-06 -1.605862113211e-06 -1.018912568866e-06 -1.473617218423e-06 -1.177221543718e-06 -4.322577356423e-07 -6.531336842228e-07 -5.019652734362e-07 -7.740375487231e-07 -9.928400354692e-07 -1.115157040044e-06 -6.000922617340e-07 -9.692267899079e-07 -7.708837632311e-07 -1.382153759049e-06 -1.596064743111e-06 -1.615022111860e-06 -1.907900442127e-06 -2.243599522315e-06 -2.132360843208e-06 -1.785004487282e-06 -1.879091879431e-06 -1.941042164777e-06 -8.247969667844e-07 -1.328515525441e-06 -1.079808032804e-06 -5.320994859540e-07 -7.547453886067e-07 -8.347120155072e-07 -1.154640382466e-06 -1.243982758907e-06 -1.353999699768e-06 -1.350726999731e-06 -1.569361610887e-06 -1.560158223501e-06 -1.608521002073e-06 -1.896770698987e-06 -1.317476160316e-06 -1.464744252444e-06 -1.596105108674e-06 -1.813549010284e-06 -1.571285970472e-06 -1.734599915223e-06 -1.873757952708e-06 -1.385086261922e-06 -1.323388414224e-06 -1.337695695510e-06 -1.330728956731e-06 -1.593980372953e-06 -2.009630521194e-06 -5.443647359549e-07 -1.485013602581e-06 -1.029764917930e-06 -6.180185552577e-07 -7.374148943325e-07 -8.075910140626e-07 -1.753257053390e-06 -9.362249749974e-07 -1.253056008251e-06 -1.581698125512e-06 -1.330665081086e-06 -1.688022551812e-06 -1.450528325719e-06 -1.847161203056e-06 -1.423360896455e-06 -2.588919270469e-06 -1.982608847880e-06 -2.030503722909e-06 -2.411737833404e-06 -2.360212864458e-06 -2.038586663885e-06 -2.336818152870e-06 -2.398127639669e-06 -1.878223219250e-06 -2.273021908916e-06 -2.115644560311e-06 -1.856106547053e-06 -1.952481215077e-06 -2.044501780121e-06 -1.942379568668e-06 -2.047223620079e-06 -2.034299550591e-06 -2.412715077677e-06 -2.644198823256e-06 -2.631846483118e-06 -2.079478921539e-06 -2.520323001409e-06 -2.545316919937e-06 -2.320672907175e-06 -2.434739628391e-06 -2.347969763986e-06 -2.309788982117e-06 -2.413207845504e-06 -2.631843974236e-06 -2.752158436061e-06 -2.730036404349e-06 -2.747916803917e-06 -2.135674317320e-06 -2.496055029580e-06 -2.116777977642e-06 -1.723355155706e-06 -2.114530178251e-06 -1.939763648669e-06 -9.341138466438e-07 -1.367690690282e-06 -1.066769736744e-06 -2.104663119673e-06 -2.312684053843e-06 -2.306096905998e-06 -1.151801264883e-06 -1.187154766738e-06 -1.248763831304e-06 -1.180529217604e-06 -1.200654227181e-06 -1.379602145383e-06 -1.719494938953e-06 -1.826274029436e-06 -1.968109204004e-06 -2.637204468373e-06 -2.753340033338e-06 -2.831899254393e-06 -2.573189258781e-06 -3.025542362151e-06 -2.989230222905e-06 -2.069821892807e-06 -2.314547353777e-06 -2.001439232328e-06 -1.022546816369e-06 -1.199204095729e-06 -2.460031285382e-06 -2.778588073219e-06 -2.329982907205e-06 -2.541647539791e-06 -1.445825899153e-06 -1.522676987411e-06 -1.534735302400e-06 -1.662465435907e-06 -8.140017421591e-07 -1.070014467364e-06 -2.374885360923e-06 -2.731505298244e-06 -2.280059220131e-06 -2.151617378302e-06 -1.831965236517e-06 -2.034815701712e-06 -2.309202809118e-06 -2.589855892114e-06 -2.519417786272e-06 -2.008278033168e-06 -1.932071094372e-06 -1.839181858698e-06 -2.183694725143e-06 -2.748516020359e-06 -1.848890106793e-06 -2.504556208254e-06 -2.092928122465e-06 -2.506556048868e-06 -1.303181807207e-06 -1.567279305966e-06 -2.434624666729e-06 -2.167230408112e-06 -1.113055954565e-06 -1.923732856679e-06 -8.916212946926e-07 -2.411743132807e-06 -2.338812950657e-06 -1.850324483736e-06 -3.249180536891e-06 -2.866378416597e-06 -3.158156425265e-06 -3.014252825895e-06 -2.886229750063e-06 -2.989726554326e-06 -3.218737631909e-06 -2.681895224536e-06 -2.935698232065e-06 -3.025224429224e-06 -2.425395734917e-06 -2.428121456973e-06 -2.636688321959e-06 -2.215808618909e-06 -2.042238767075e-06 -2.295899046434e-06 -3.186405430819e-06 -3.103043573908e-06 -3.277921709399e-06 -3.186572204501e-06 -3.549776275265e-06 -3.432573104472e-06 -3.541596366397e-06 -3.734778002763e-06 -3.788413419488e-06 -2.501653554976e-06 -2.565206211101e-06 -2.820460922952e-06 -3.211668040009e-06 -3.000158998049e-06 -2.721323326416e-06 -2.934156886170e-06 -3.102762551283e-06 -3.165049726039e-06 -1.521398225920e-06 -1.630876319140e-06 -1.765141120035e-06 -1.384281110332e-06 -1.385991737786e-06 -1.346034608465e-06 -1.769217188160e-06 -1.963243191769e-06 -1.884601094700e-06 -2.627598306789e-06 -2.890267543965e-06 -2.779531063436e-06 -2.877938240520e-06 -2.981702769874e-06 -2.890937961513e-06 -3.243949838749e-06 -3.561779925961e-06 -3.407768470274e-06 -3.713164401139e-06 -3.813234560507e-06 -3.704428264830e-06 -3.284599832084e-06 -3.243018507330e-06 -3.527392386034e-06 -1.458815192744e-06 -1.485610753008e-06 -1.423987546594e-06 -2.217522171925e-06 -2.486256917085e-06 -2.291688166974e-06 -2.876869291235e-06 -3.339762817898e-06 -2.202990675126e-06 -2.578221205048e-06 -2.965357480485e-06 -1.837226985213e-06 -2.016150661199e-06 -3.215264917089e-06 -3.341673463216e-06 -1.313553946749e-06 -1.870704272859e-06 -3.107493682464e-06 -3.412623097073e-06 -3.121321874547e-06 -2.431413744712e-06 -2.567267077887e-06 -2.849633913332e-06 -2.265083215090e-06 -2.553020615692e-06 -2.866357589948e-06 -3.093070311463e-06 -3.390654567287e-06 -3.591276498084e-06 -1.435740543540e-06 -1.413094306605e-06 -1.957826819591e-06 -3.748624250595e-06 -3.103865854522e-06 -2.782400354414e-06 -2.877014986809e-06 -3.101632742168e-06 -2.228503318226e-06 -2.556538698184e-06 -2.956710625372e-06 -1.643925674329e-06 -2.224731403396e-06 -2.994656881238e-06 -1.511664924002e-06 -3.612142973027e-06 -3.471542371545e-06 -3.672160445747e-06 -2.971761884167e-06 -3.092946632440e-06 -2.792464129745e-06 -2.423333557489e-06 -2.346899719245e-06 -2.027381262241e-06 -3.905059620113e-06 -3.886252019488e-06 -3.881661539504e-06 -3.569239112922e-06 -4.028091718074e-06 -3.806309218627e-06 -3.247796132884e-06 -2.674483684147e-06 -2.833311292694e-06 -3.097642600548e-06 -2.895171100488e-06 -3.148705897438e-06 -3.291935186420e-06 -3.390964585955e-06 -3.851045921217e-06 -4.059775121462e-06 -3.893786149289e-06 -4.085357211573e-06 -3.883353720998e-06 -3.973462087507e-06 -3.926434281265e-06 -3.959259732807e-06 -4.273934619770e-06 -3.911347827006e-06 -3.047389303420e-06 -3.599431123133e-06 -3.004983205990e-06 -1.982224026224e-06 -2.075691117135e-06 -1.970456381499e-06 -1.477520471305e-06 -1.385914581961e-06 -1.452584839597e-06 -2.189102240319e-06 -2.072635568617e-06 -2.188519827979e-06 -3.167735779649e-06 -2.968945975409e-06 -3.260078349291e-06 -3.612712054757e-06 -3.870725189090e-06 -3.816970988637e-06 -4.336038525491e-06 -4.387258396231e-06 -4.455841780467e-06 -4.362667342050e-06 -4.610089544510e-06 -4.772325855236e-06 -1.808102070980e-06 -1.578704718434e-06 -1.824919766324e-06 -2.592077243661e-06 -2.353210752185e-06 -2.535846735781e-06 -1.931461989716e-06 -3.368570556746e-06 -3.333184043639e-06 -4.027569780574e-06 -4.672006062819e-06 -3.766760907483e-06 -3.965414084083e-06 -3.254879693001e-06 -3.120774102102e-06 -3.345381272869e-06 -2.404873559625e-06 -2.538499127685e-06 -2.812480962887e-06 -2.757377139580e-06 -1.426383679496e-06 -1.656088744682e-06 -3.835611786999e-06 -3.766808410373e-06 -2.701491517105e-06 -3.308461897570e-06 -3.091023017617e-06 -4.074966256157e-06 -3.779519277448e-06 -3.581416900563e-06 -2.289209229585e-06 -2.025576518911e-06 -1.457354974092e-06 -4.373529369822e-06 -3.970409168552e-06 -3.176965740437e-06 -3.782801570710e-06 -2.133384551930e-06 -4.232233398138e-06 -1.688286700248e-06 -2.972673161405e-06 -3.129444042164e-06 -1.552182089230e-06 -3.410818207546e-06 -3.169928713619e-06 -2.410938343683e-06 -3.036489347889e-06 -2.126797317636e-06 -1.625430204655e-06 -2.069250765698e-06 -4.282636171619e-06 -4.225263224115e-06 -3.990850900119e-06 -4.529698950669e-06 -4.454560289228e-06 -4.430359274332e-06 -4.071277358886e-06 -3.698451600161e-06 -4.196504225155e-06 -3.679316181356e-06 -3.712466566238e-06 -3.280687980685e-06 -4.600296226282e-06 -4.729100081091e-06 -4.519663968712e-06 -4.974514288107e-06 -4.444354949544e-06 -5.273543877434e-06 -3.686922348509e-06 -3.476093794363e-06 -3.971682053979e-06 -3.322622457169e-06 -3.234279229547e-06 -2.947402969244e-06 -1.485158178512e-06 -7.125259259648e-07 -1.410135095285e-06 -1.624970268714e-06 -1.688189114650e-06 -1.417387790396e-06 -2.402768407646e-06 -2.258165975050e-06 -2.563678116364e-06 -2.131342188985e-06 -2.181507888777e-06 -1.562059929257e-06 -4.545095947532e-06 -4.427358461919e-06 -4.351229192216e-06 -3.105442411321e-06 -3.057132755835e-06 -3.874261075192e-06 -3.697631158447e-06 -3.322518926578e-06 -5.379233406029e-06 -4.942086516987e-06 -4.900638520174e-06 -5.747324016703e-06 -5.387612959984e-06 -5.491116535768e-06 -2.548609472120e-06 -2.523314472110e-06 -2.307951346185e-06 -3.016153322862e-06 -3.049924612345e-06 -2.610967842080e-06 -3.150636601933e-06 -2.778576780290e-06 -2.951882726343e-06 -4.280194041837e-06 -4.234638199578e-06 -3.984942272384e-06 -1.749588082411e-06 -4.493676161813e-06 -4.331562691344e-06 -2.085655696356e-06 -1.977782925285e-06 -3.057526442720e-06 -3.000811495217e-06 -5.392729109869e-06 -5.515147620520e-06 -4.449127213042e-06 -4.477845616583e-06 -2.586667947835e-06 -4.001368097331e-06 -3.673223382320e-06 -3.320371719710e-06 -3.606114832855e-06 -4.527655121415e-06 -3.275805495277e-06 -3.080392518425e-06 -4.257881810934e-06 -5.340614302204e-06 -1.668714047831e-06 -2.357763987397e-06 -1.889511887783e-06 -4.251060038829e-06 -2.764955486683e-06 -5.045653745424e-06 -5.214078963848e-06 -4.581585096530e-06 -1.613690191811e-06 -2.897959181958e-06 -3.333058677321e-06 -1.832695541548e-06 4.784811630777e-06 1.123392558681e-06 -3.992828855863e-06 -3.996427584038e-06 4.657839430081e-07 8.889297243186e-07 -3.712932622986e-06 -3.102761062214e-06 -3.556918235926e-06 2.182125680052e-06 -4.355379717489e-06 -1.806037015008e-06 -3.974610267320e-06 -4.580707364453e-06 1.928155249459e-06 3.343590963804e-06 -3.939462639932e-06 2.026864899592e-06 3.500336500312e-06 3.223391489401e-06 8.235456296058e-06 -1.636156126010e-06 7.669871407194e-06 -2.833824519932e-06 -2.278483449593e-06 -2.377648924132e-06 8.342392552603e-06 -3.120934403447e-06 -4.699938932410e-06 5.841025676171e-06 9.391221510234e-06 2.966977951472e-07 -4.179157447881e-07 6.691251767974e-07 -5.465628464386e-07 2.689459505311e-06 1.957486731789e-06 3.971975209479e-07 2.692945401857e-07 9.660335003344e-07 1.018774017258e-06 -1.828546851712e-07 -2.969437548718e-06 -2.366677752352e-06 -2.553083119317e-06 -2.882706302761e-06 -2.434689046741e-06 -2.821577340316e-06 -2.516299132616e-06 -2.673278244265e-06 1.031855548956e-06 2.006762028155e-06 1.318471387130e-06 1.528546273802e-06 7.396107518044e-06 2.279572017372e-06 -3.960627949399e-06 -2.529217228975e-06 -2.556778388415e-06 -1.904696224890e-06 -1.668462665086e-06 -2.396753922860e-06 -3.059764529068e-06 -2.443674628464e-06 -1.226372428276e-06 -1.285384780704e-06 -4.230237814780e-06 -3.816499284663e-06 -2.542708947869e-06 -4.456198517174e-06 -2.911532040996e-06 2.633444632921e-06 -3.363707524695e-06 1.048596003480e-06 9.290428412948e-07 6.395259545873e-06 2.490723098255e-06 3.438007881570e-06 4.938529606377e-06 -1.884577435144e-06 -1.683776937137e-07 -1.256593771802e-06 -3.948129875376e-07 3.744266244092e-07 -8.993324700618e-07 -1.064915788514e-07 3.610867518639e-07 -3.839051022611e-06 -3.470321353922e-06 -3.790473699176e-06 -2.878855065339e-06 -2.894516422662e-06 -2.773978575917e-06 -2.861857714254e-06 -2.885402607511e-06 -2.916933191309e-06 8.240856802552e-07 1.184290934505e-06 2.816105011136e-08 3.527692824671e-07 -5.757123032820e-07 4.154605623678e-07 -1.882060500928e-06 -1.775112643632e-06 -1.757724544924e-06 -1.092933351043e-06 -3.512318891167e-06 6.953574877776e-06 4.551838649965e-06 4.674787414357e-06 6.376168888335e-06 4.373031083027e-06 3.198371305047e-06 -2.668418171232e-06 -2.445397205027e-06 -2.260996451036e-06 -3.281469155728e-06 -3.632923571888e-06 -3.442148254996e-06 -3.494451361953e-06 -1.251479192203e-06 -9.876399718796e-07 -1.956508077432e-06 -3.615242352341e-06 -4.676656424834e-07 -7.597392680073e-07 3.724514068271e-07 3.597499834114e-07 -5.477373217951e-07 -3.212034813929e-07 -6.452445622807e-07 2.163467202794e-07 -1.321920318959e-06 -1.248793347881e-06 6.262330797332e-07 1.400069100161e-07 -3.166575506508e-06 -3.413848458342e-06 -3.426544105974e-06 -3.023658106346e-06 -2.260284471034e-06 -1.529754012106e-06 -1.738063861501e-06 -2.652795404456e-06 1.019795953207e-06 2.550444696325e-06 2.354017134554e-06 3.512557859390e-07 -2.468579059448e-06 -1.808380246007e-06 -2.382723100972e-06 -1.954361184738e-06 3.765196859703e-06 2.211094303009e-06 2.119383496257e-06 -1.249902773183e-06 -1.541847776812e-06 4.023397158005e-06 4.367336637075e-06 5.850619974691e-06 1.734283673285e-08 -2.206902185324e-06 -3.709974000433e-06 -8.764673832077e-07 -5.262421571592e-07 1.048623753075e-06 6.406666140194e-07 -1.439759757826e-06 1.393016333395e-06 4.859572514393e-07 -3.138213603056e-06 -2.847836557959e-06 -3.626103181942e-06 -3.022551480045e-06 -3.497577828545e-06 -2.972322992238e-06 -1.157309958549e-06 -6.115604914004e-07 -1.885923699837e-06 -3.159847996646e-06 -2.844092314029e-06 -3.120344302165e-06 -2.729058962222e-06 -3.571563022746e-06 1.630647485521e-06 1.925291459415e-06 2.081925999573e-06 3.911583619380e-07 2.473819259441e-07 -4.595533870481e-07 -4.631091921799e-07 3.173476212185e-07 -8.817436954282e-07 -1.453765259026e-06 -4.215857554817e-06 -3.772908777899e-06 -4.010649757257e-06 -3.215394316318e-06 -3.084715465260e-06 -4.754226855794e-06 -1.943901276476e-06 -1.313038777232e-06 -3.092256827523e-06 -2.738253363018e-06 -3.930631141563e-06 -3.443790376571e-06 -3.535495718528e-06 -3.758412424853e-06 -9.292498348283e-07 -1.473972921453e-06 -9.955928873318e-07 -1.168521238970e-06 -3.337069740169e-06 -3.201240226532e-06 4.383231734879e-06 2.617053755803e-06 3.497512504083e-06 3.052213974650e-06 3.254981498557e-06 -2.310047079714e-06 1.576429599777e-06 9.743609871530e-07 -2.019250778601e-06 2.749802628118e-06 -3.584302614416e-06 -2.480457751839e-06 -4.269022688241e-06 -4.246700615370e-06 -4.047969050328e-06 -4.695476081877e-06 -2.872804119974e-06 -2.522237482592e-06 -3.071000328783e-06 -2.399576984644e-06 -1.595207785569e-06 -2.995998265962e-06 2.589227468155e-06 -2.505366093401e-06 -3.137454502373e-06 -2.256852962629e-06 -1.955858325905e-06 -2.503235620176e-06 9.680254237754e-06 -3.677759040168e-06 -3.690897035156e-06 -3.814445090233e-06 -3.643865208151e-06 -1.720982281403e-06 -1.542119897907e-06 -5.558639913546e-07 -1.369922605918e-06 -2.587807876974e-06 -5.526173045093e-07 -3.035379455439e-07 -7.928832119752e-07 -4.730183553637e-06 -4.527295507595e-06 6.199290781852e-06 3.742477977971e-06 -1.326628749077e-07 7.151358779970e-07 1.355080637477e-06 -1.696112758391e-07 -6.481455310871e-07 -1.239434349672e-06 9.731830160496e-07 -6.310998038236e-07 -1.092515561035e-06 -2.967539202222e-07 8.741215374049e-07 9.193581878601e-06 7.315655989033e-06 5.316218932331e-06 3.299572337085e-06 3.351813547455e-06 -3.785864773453e-06 -3.827299602626e-06 -2.709961141623e-06 -2.324744451264e-06 -2.406558859747e-07 -3.699401863116e-06 -4.165301833304e-06 -3.457266362799e-06 -3.714052903420e-06 6.738336440944e-06 3.498919565235e-06 2.158973872938e-06 7.110926991481e-07 -4.628195810054e-07 -3.901261786641e-06 -3.341876195588e-06 -4.277785316198e-06 -2.979819428516e-06 -2.868932939281e-06 -2.437447365475e-06 -2.859823560271e-06 -2.788743893626e-06 -3.109914813789e-06 -1.076590152641e-06 1.781263787951e-07 -1.475425579785e-06 -2.906367332171e-06 -3.101494365687e-06 1.381756969189e-06 -4.190733947256e-06 -4.745029397146e-06 -2.431886820019e-06 2.649346713653e-06 -2.841906505680e-06 -2.705478975937e-06 -2.975401665333e-06 -9.569862074804e-08 -1.526643576345e-06 -7.532358141845e-07 -3.496300988408e-06 -3.665680033801e-06 -3.617365644721e-06 -2.064688699329e-06 -1.630076914585e-06 -2.169425239451e-06 -2.366671094478e-06 -1.228998572245e-07 -8.573830361805e-07 6.387305337339e-07 -3.509534851502e-06 -3.193318169913e-06 -3.039980830103e-06 -3.055750050699e-06 -2.367679643219e-06 -3.375910508507e-06 -1.736839010560e-06 -2.335941235665e-06 -2.674973534174e-06 -1.436011385901e-06 -3.152510038154e-06 -1.709789695924e-06 -2.647463252181e-06 -1.940216794240e-06 -3.691587061495e-06 -3.795137756768e-06 -4.082714236451e-06 5.843772565068e-06 7.665042360334e-06 -2.527643494905e-06 -2.748337693840e-06 2.007934417521e-06 -1.911650302436e-06 -2.833743865560e-06 7.046194926116e-07 1.435818761018e-06 8.258524457446e-06 -2.850662503976e-06 -3.038979968956e-06 9.880807081102e-06 2.083971338508e-06 -2.311219962377e-06 -3.644820536201e-06 -3.441433860601e-06 -3.798949335643e-06 -3.402873200997e-06 3.071497577266e-06 3.582421795225e-06 -1.133501488177e-06 2.117376868949e-06 -2.983534206104e-06 -2.620024925925e-06 -2.450620536029e-06 -4.143067655817e-06 -4.031143276702e-06 -4.008959550836e-06 -3.631658991754e-06 1.090126397432e-05 -1.147392960466e-06 -2.787873218995e-06 -5.128866409629e-06 -4.421951672911e-06 -2.108667339160e-06 -3.929672245121e-06 -3.892086738571e-06 -4.250642877383e-06 1.435247660867e-07 -3.277423807632e-06 7.976488225904e-07 9.775466346914e-07 -3.773599382391e-06 5.175410476522e-06 9.075363561260e-06 6.178295029358e-06 3.423347722006e-06 4.491023813214e-06 5.038913866369e-06 1.193682485079e-06 -2.884331315937e-06 -3.342616728830e-06 -2.393311155110e-06 2.193566402643e-06 -3.534264028425e-06 -3.532017921633e-06 -3.072758581328e-06 -2.440122495913e-06 -1.383888640687e-06 -1.764037219903e-06 -4.306951454114e-06 -1.004584298922e-07 -3.096128924573e-06 -3.325145388451e-06 -4.568163408633e-06 -3.098585925240e-06 -4.446741230265e-06 3.103941190264e-06 -3.282729103533e-06 1.443513106085e-07 -5.078746673585e-07 -3.031847196246e-06 -4.058065873854e-06 -2.534193883393e-06 -2.026520473978e-06 -3.037437643775e-06 -3.232873966407e-06 -1.925378388316e-06 -6.397218559329e-07 -3.364999257786e-06 -2.221321589779e-06 -2.748292927827e-06 -3.799930984871e-06 -1.523267659453e-06 -2.363101321100e-06 -2.101952499937e-06 1.417542494030e-06 -3.012974516459e-06 8.307334731228e-07 -1.373204885180e-06 -4.562144752344e-07 -7.670149474818e-07 -3.662867355440e-06 -1.748520692442e-06 -1.260462130275e-06 -8.594565197800e-07 -1.711329179225e-06 -1.646313356011e-06 -1.791881590626e-06 -1.417633279654e-06 -3.416122660719e-06 4.426990280532e-08 -1.265381225690e-06 -4.419501534909e-06 -3.070685095826e-06 -2.554736852092e-06 -1.774803700153e-06 3.823208747860e-06 -3.342599127561e-06 -2.966093835729e-06 7.338541160994e-08 -1.153433069254e-06 1.505225305033e-06 -1.066765770238e-06 -6.615392657376e-07 -3.639531377016e-06 -2.060887161489e-06 -2.486128226842e-06 -4.705116748327e-06 -3.115602500479e-06 4.158960698366e-06 1.573931721784e-06 -2.538938676855e-06 -2.032257543642e-06 -3.883709869220e-06 -1.656455107820e-06 -1.644522608313e-06 5.052114808723e-06 1.846346824129e-06 -3.318593415739e-06 -2.397519326904e-06 -4.356891938858e-06 -2.839249175493e-06 -3.093015067712e-06 -3.101318951989e-06 -6.353681965105e-07 -2.344916630352e-06 6.444903826290e-06 1.123722344167e-05 -1.515660258929e-06 -3.138818794390e-06 -9.603690918070e-07 -1.165616572448e-06 -2.664741488149e-06 -1.924479486770e-06 1.925918600048e-06 -2.117010052771e-06 -3.935961135597e-06 1.342377182956e-06 -2.137396716861e-06 -4.246440897434e-07 -7.594861076636e-07 -3.336577457821e-06 3.387434162727e-06 -3.105854164787e-06 -1.127762494887e-06 1.619537300515e-06 -2.052601276503e-06 1.171605081417e-05 -7.078659581951e-07 -1.391489422709e-06 -6.182387563162e-07 -2.804089219784e-06 -4.352026881601e-06 -7.871720084765e-07 -7.847053224985e-07 3.338402252016e-06 -1.334514656961e-06 1.274930817689e-06 -1.142247275521e-06 4.673865231138e-07 -1.154544194391e-06 -6.330972153930e-08 -2.923871237858e-06 -1.597965475062e-06 -2.667667612853e-06 2.317119212891e-06 -8.658662966103e-07 -1.724726416890e-07 -3.052485014283e-06 -6.849490776599e-07 -4.496167060316e-08 3.755318225155e-06 9.485813769287e-07 -2.623774199007e-06 -1.723233885353e-06 7.369282898892e-07 -1.399828907760e-07 -3.151114882681e-06 1.661006982615e-06 -1.127190734758e-07 -2.274994412981e-06 3.177120216337e-06 -1.443579017486e-06 6.592649517412e-07 -5.175026511694e-08 -2.338700277786e-06 -2.641374715865e-06 -2.001054126140e-06 -3.137873981157e-06 -6.691614745128e-07 -2.340310029159e-06 3.340923842459e-06 -1.903854457190e-06 -1.744095102184e-06 3.820957229272e-06 -3.247642732319e-06 9.054356827375e-07 2.220731270894e-06 1.292846294571e-08 -2.834208594122e-06 -1.258824369919e-06 6.130945645055e-06 -1.457920880340e-06 -5.560136775557e-07 -6.721456803762e-07 4.906176499286e-06 1.674985247661e-06 -1.357521331508e-06 -1.188106411975e-06 -1.098734497398e-06 1.709809548125e-06 1.863762833534e-07 -1.436255940440e-06 2.783771149183e-07 2.391058157653e-07 3.887827984692e-07 -8.840328895042e-07 -1.978914180738e-07 -2.545199643810e-06 9.402901323947e-07 8.462026376476e-07 -1.934534159491e-06 2.227115476228e-06 -3.548937122163e-06 4.435244313924e-07 -3.179802475387e-06 1.354608274677e-06 -2.146319756900e-06 -2.523410815504e-07 -1.627296046551e-06 -2.136323167067e-06 -1.709484398965e-06 -1.850131163364e-06 2.495194597325e-07 -2.396584353379e-06 -1.844605788142e-06 -4.933249752619e-07 -1.196487981308e-06 -3.753716708924e-06 1.087140860056e-06 -6.510200113454e-07 4.484873032033e-06 -1.832388328112e-06 -2.958898403994e-06 8.952300349017e-07 5.698590539908e-06 -3.805481663617e-06 6.449245550316e-07 -3.864242075065e-07 7.221943163049e-07 2.128962033992e-06 -4.150966355787e-06 -3.525940108773e-06 1.337409016428e-06 -3.032793963746e-06 4.207625911739e-07 6.643187120715e-06 -3.397879928498e-06 -2.123585756454e-06 -8.242069431256e-07 -1.071648519033e-06 -1.475556245190e-06 -1.939010112865e-06 -3.270756907940e-07 -6.414345520906e-07 9.332741292075e-08 5.240475324468e-07 -5.573420644352e-07 1.819889270109e-07 -2.509550198698e-07 5.858818031868e-07 -1.421859365226e-06 -1.773068857785e-08 -2.253676094386e-06 -1.316239365138e-06 -7.853600127388e-07 -3.234116866101e-07 2.149845271561e-06 -2.552169000480e-06 -1.025774681751e-06 3.806166156296e-06 -3.562181315959e-07 3.213545271009e-06 1.717722158297e-06 1.611607155128e-06 2.594552238132e-06 -9.820906846770e-07 -3.530332141460e-06 1.801787066637e-06 -6.516375120516e-07 2.541624090160e-06 -1.722070261454e-06 1.057369665105e-06 -6.720901670046e-07 -1.473503396418e-06 1.759396080544e-06 -2.057915154009e-06 7.296323306337e-06 -1.064620626086e-06 1.201977513718e-07 1.333559227631e-06 6.053765310791e-07 1.241595366691e-06 -7.872926830928e-07 -3.271526574946e-06 -1.408419458926e-06 1.757918950812e-06 2.185664217669e-07 -3.122279985837e-06 4.786746148007e-06 -2.321311092984e-06 -2.775388580944e-06 -2.947697690760e-06 -2.653782237755e-06 6.696826552065e-07 -2.323453499894e-06 -1.120022583162e-06 -6.317562300589e-07 5.569530431134e-07 1.741886687548e-06 7.269580687116e-07 -2.745439603189e-06 3.548513396175e-06 -1.996413573252e-06 -1.140331987255e-06 8.648125883824e-07 -2.567896059105e-06 -2.241104934006e-06 4.356862466585e-06 -3.411725211796e-07 1.192660395984e-07 -1.232670553256e-06 -1.240297453668e-06 -6.554304725277e-07 -3.347419083743e-06 -2.422152187070e-06 -1.728474045868e-06 -1.548493407124e-06 2.807012029718e-06 5.920759692612e-07 -4.441084654438e-07 -1.657950758506e-06 -8.181604595460e-08 -1.614575402421e-06 3.814213874428e-06 2.552529524749e-06 3.965038120097e-06 -3.168093669872e-08 -2.020274560550e-06 2.620155165287e-06 4.607546043766e-07 6.070474724180e-07 -4.205902095294e-06 -1.621241633804e-07 -2.292675983714e-06 -2.408123543931e-06 -5.498938931333e-07 -3.705272734827e-06 -2.837260190602e-06 -9.076927113289e-07 -2.702130056343e-06 1.649759276693e-06 -4.655407537612e-06 -3.293202030206e-06 -2.713421474611e-06 5.497194330628e-07 -4.841073188618e-07 -1.749910131438e-06 -1.200743541963e-06 -2.226197126772e-06 6.919565687843e-07 -5.595312976690e-07 8.101405872016e-07 -3.620932611421e-06 -9.134581169246e-08 -9.148072065184e-07 2.514120013900e-06 -6.373840432356e-07 2.375202930268e-06 -8.255835741957e-07 6.396272130532e-06 -1.666420202007e-06 -3.603823274238e-06 -2.052890335456e-06 -2.361848600548e-07 -1.620705926501e-07 5.746755612684e-07 -2.888326527994e-06 1.417111011779e-06 -7.983114781729e-07 -6.991467180504e-07 2.015848990489e-06 -6.900143401101e-09 2.433484560198e-06 1.028351331243e-06 8.572648412815e-09 -3.362473957463e-06 -3.695799075280e-06 -2.125689744692e-06 -2.113647736118e-06 -2.280683505543e-08 1.755761871137e-06 3.889163188682e-06 -3.430765958487e-06 
        </DataArray>
        <DataArray type="Float64" Name="STRESS_XY" format="ascii">
          1.629361742579e-07 4.904070974847e-08 4.858627673316e-07 7.848960953343e-08 -3.232283894860e-08 -2.083613091509e-07 1.089985397975e-06 1.279196195399e-06 9.973048854599e-07 1.538138326312e-06 1.385278490475e-06 1.537014033741e-06 1.769555427408e-06 1.593828279918e-06 1.864646829082e-06 1.365523878787e-06 1.873223814783e-06 1.786948761552e-06 2.028892453708e-06 1.128062684889e-06 1.199151498052e-06 2.209000006984e-07 2.428974560382e-07 5.771254942474e-07 -1.667675685638e-08 -1.077639545038e-08 1.457173558638e-06 9.700090085494e-07 1.579130578678e-06 1.207413760510e-06 7.200650103231e-07 2.627913688851e-07 2.085957284154e-06 1.820668227757e-06 1.684914268164e-06 1.576038227941e-07 3.954224258246e-07 -1.073262027602e-07 1.842774794263e-06 1.857019933321e-06 1.273954966962e-06 2.509604669368e-07 3.147711300254e-07 1.482302887338e-06 1.418946103150e-06 9.696162350402e-08 4.449429983577e-07 2.129705387683e-06 2.040080127791e-06 2.012147858262e-06 2.004573752238e-06 1.691621781472e-06 1.964948388709e-06 1.967584322429e-06 1.154501742947e-06 6.851380417347e-07 6.250222076222e-07 1.631687173544e-06 1.602948382555e-06 2.045185635068e-06 1.254814253621e-06 8.508646159240e-07 1.684530467703e-07 6.481849379107e-07 1.476233182393e-07 -8.142896354704e-10 -1.839515776511e-07 1.727727992712e-06 1.454117385928e-06 1.815089988641e-06 1.764099627359e-06 2.038850054729e-06 1.844538410240e-06 1.565149579060e-06 2.182966601913e-06 2.017931350780e-06 6.098086425409e-07 2.199181619146e-08 6.965804940623e-07 1.423378278925e-07 1.959220937919e-06 1.690173313153e-06 1.964809836932e-06 8.008227062448e-07 7.518821693249e-07 2.040621866397e-06 1.421778902087e-06 1.452956650025e-06 2.090043908293e-06 2.012123211628e-06 2.887846242260e-07 4.669160139771e-07 1.786857957692e-06 1.605740829600e-06 1.373260971223e-07 3.600272887951e-07 1.566696534548e-06 1.804956481521e-06 1.286047957411e-06 9.757853462639e-07 1.617115743453e-06 8.317602572837e-07 5.196020759523e-07 1.247958403155e-06 1.842564394220e-06 1.432626021890e-06 1.966846312004e-06 1.979637696355e-06 1.692671239424e-06 1.030294887297e-07 1.004325758620e-07 4.727939722214e-07 1.211106230744e-07 -7.213927021849e-08 -1.032536479361e-07 5.449590109510e-07 7.130862574509e-07 4.909592125930e-07 1.350312702604e-06 1.494856629704e-06 1.382619976973e-06 1.645279423279e-06 1.301783321443e-06 1.413388106593e-06 1.207074911916e-06 1.890688623978e-06 1.646096227630e-06 1.866043338912e-06 1.067693359147e-06 9.858205178392e-07 2.813723186417e-07 2.621405365102e-07 4.556825447805e-07 -8.015548742825e-08 -1.917260799019e-08 1.235654685196e-06 9.246034375634e-07 1.353774614712e-06 9.477117101375e-07 5.629457545875e-07 1.928725864281e-07 1.740012420388e-06 1.659562599289e-06 1.503231331364e-06 1.836478089284e-07 1.915933204022e-07 -2.024940581191e-07 1.634168394022e-06 1.539176135757e-06 1.486095907448e-06 3.569735936838e-07 2.388470360726e-07 1.503477030493e-06 9.415368115313e-07 -3.409361946344e-08 9.540456712279e-08 1.784069376513e-06 1.573977748009e-06 1.638067894591e-06 1.511070123657e-06 1.569659118174e-06 1.635768592509e-06 1.764657869046e-06 9.087409771720e-07 1.928321637275e-07 2.258519981881e-07 1.133711595671e-06 9.886028681933e-07 1.378501344715e-06 8.530892425962e-07 3.978086810762e-07 2.006259478935e-07 4.737692868528e-07 2.642720989449e-07 1.673403408366e-07 -1.270276216021e-07 1.119923744125e-06 9.481555806860e-07 1.777995021672e-06 1.861770671199e-06 2.028143412037e-06 1.646659916461e-06 1.664431631588e-06 1.861246818070e-06 1.599977057941e-06 2.885338623595e-07 -1.467240568344e-07 5.462540126123e-07 2.368376318892e-07 1.183210157953e-06 1.162013632485e-06 1.724267177495e-06 5.397800344969e-07 3.036661573445e-07 1.391761593281e-06 1.060592156308e-06 1.579933071985e-06 1.928660049930e-06 1.767675048278e-06 1.369712919759e-07 4.511020062834e-07 1.691761935305e-06 1.704761642611e-06 3.339056363053e-07 2.139038614905e-07 1.530215474484e-06 1.638374014733e-06 7.950225450072e-07 5.132246892170e-07 1.153036844111e-06 7.970780772467e-07 4.520270023305e-07 1.322837838045e-06 1.748513520682e-06 1.144842184171e-06 1.737269372212e-06 1.733118293091e-06 1.275814746450e-06 2.642376295753e-07 1.307865026719e-07 1.986559435980e-06 1.970934371805e-06 2.799013635626e-08 7.114406389759e-08 -5.991807912079e-08 2.764997346793e-07 1.164214169177e-07 2.404137307846e-07 6.537202495026e-07 2.955021528885e-06 2.885977117454e-06 9.009501394051e-07 2.881230394415e-06 2.954344021716e-06 9.861060467523e-07 2.915694728062e-06 2.927816985328e-06 1.115928502196e-06 2.924302628676e-06 2.991960187608e-06 3.107211450803e-07 2.176530849279e-07 2.852325669513e-07 3.163567542593e-07 3.422542813582e-07 1.621563710840e-07 -3.495921195540e-07 -2.551428206275e-07 -4.748508909395e-08 -2.740782342592e-08 -2.385225947754e-08 -1.793309974837e-08 1.089210637948e-06 2.969100864011e-06 3.042882448331e-06 1.257092640692e-06 3.032178530654e-06 2.954557704718e-06 2.694883305023e-07 1.608238581832e-07 3.714213179896e-08 3.065376743379e-07 1.911312500043e-07 2.060028609341e-07 1.209698572038e-06 3.032591094567e-06 2.911122754241e-06 1.232614322288e-06 2.934396181155e-06 3.109690022432e-06 1.778514918283e-07 1.369615437856e-07 1.198690367437e-07 8.727367229236e-07 2.789554457268e-06 2.932945436093e-06 1.887009097924e-08 -1.469856193098e-08 1.119727570804e-06 2.978411075513e-06 2.942746550281e-06 -2.631211606175e-07 -2.195808497355e-07 -2.238778340370e-07 1.472103596554e-07 4.421393637499e-08 1.850895864897e-07 4.664145641518e-07 4.925473873408e-07 1.289342361993e-06 2.929096346041e-06 3.078291818377e-06 1.121880921989e-07 2.481231901643e-08 2.731844574054e-07 -3.970442099416e-07 -3.887585909999e-07 -2.145961224004e-07 -1.418515925886e-07 1.462859764794e-06 3.007040666207e-06 3.090944770813e-06 3.313246740273e-07 4.041697949533e-07 4.692513898253e-07 3.724440661265e-07 5.038809156311e-07 5.740258056772e-07 5.985820398534e-07 4.873269055618e-07 2.314114642893e-07 1.253019782554e-07 2.664891850458e-07 4.334875269008e-07 6.519169547029e-07 7.624075676586e-07 8.045973241454e-07 6.952691796550e-07 5.273352291423e-07 3.636438604011e-07 2.786478531044e-07 7.424040529675e-07 2.948543008753e-06 2.241696872345e-06 1.160197148267e-06 3.008932932050e-06 2.844440559641e-06 1.318402398285e-08 6.249446579472e-08 9.971274988723e-08 3.790349145280e-07 4.471168022748e-07 7.362576065189e-07 5.212890531604e-07 -6.031244190709e-07 -2.916964912310e-07 -2.105944762297e-07 -4.358341260906e-07 -6.397328101578e-07 2.187799773713e-07 3.019131160722e-07 -3.818924188964e-07 -3.663473722609e-07 -2.999488534659e-07 -4.203133367181e-07 1.068781360193e-06 2.900455262361e-06 3.670967192729e-07 2.411204865621e-07 1.423788412376e-06 2.945425142148e-06 1.096515298521e-06 2.899683388504e-06 3.027538651382e-06 4.102287707918e-07 8.520692173276e-07 -6.244617328485e-07 -5.163077407452e-07 9.525682370278e-08 4.292047871603e-07 6.523844875236e-08 1.379524281657e-07 5.688153009585e-07 5.240922161235e-08 1.863669616383e-07 2.439637671630e-07 8.526893817591e-08 4.232167997123e-07 5.363244508822e-08 2.204368333819e-07 4.551662937035e-07 3.086253477694e-07 3.336327567111e-07 3.151804050230e-07 4.778130910864e-07 4.968226920013e-07 5.472955094911e-07 3.865732447546e-07 3.743223967101e-07 4.975364198676e-07 4.777220457223e-07 4.704810996550e-07 4.158915824381e-07 4.682440983182e-07 5.723091827231e-07 1.632960053522e-08 1.256017733202e-07 8.941963283463e-08 8.637510141103e-08 4.481792513890e-07 7.153922406548e-07 4.476441752128e-07 -1.432142897904e-07 1.261732817790e-06 2.974937523857e-06 3.104348377470e-07 5.545263323522e-07 4.252791066502e-07 6.927785268627e-07 3.594524933304e-07 6.148198246122e-07 7.025208495379e-07 6.888257226345e-07 5.607607070251e-07 4.513146374211e-07 1.115989757738e-06 6.801049302534e-07 6.956416219220e-07 6.601316555073e-07 5.722692674965e-07 5.841521854928e-07 6.310443609953e-07 5.503047147418e-07 6.340434773355e-09 1.588503685964e-08 -3.971640269097e-08 -1.023013493641e-08 3.697712785869e-07 4.196911456317e-07 4.026033980906e-07 -1.460413382954e-07 -7.222775603440e-08 -7.879053974654e-08 2.512423384724e-07 2.187654734692e-07 -9.092192000934e-09 5.721320680357e-08 7.440091865074e-07 6.610065395475e-07 6.448051097873e-07 5.153022022699e-07 1.598881282044e-08 2.217923467656e-07 3.981058206212e-08 5.895128872638e-09 3.709382996036e-07 5.684280937176e-07 3.341310959098e-07 3.287423160284e-07 8.418730213684e-07 6.939583784662e-07 8.149482271742e-07 9.065276987299e-07 6.581320091889e-07 3.199783747139e-07 2.797767096443e-07 3.666307278098e-07 1.982534095612e-07 5.164710551428e-07 2.769932050588e-07 4.654967155087e-07 -5.472065609390e-08 -2.053456894090e-07 4.673323706069e-07 6.623818998024e-07 4.975741795235e-07 7.745630450109e-07 8.556594723371e-07 6.970298430971e-07 8.256844682255e-07 5.211969036815e-07 5.906319374710e-07 9.409203355125e-07 8.392541103400e-07 7.977079426488e-07 2.537747265900e-07 2.634609679281e-07 3.568747511038e-07 3.332458337829e-07 1.117998597024e-06 2.936411754663e-06 1.462214193301e-07 1.574249549655e-07 1.044871709180e-06 2.949451130509e-06 4.944868135546e-07 5.524803675481e-07 5.580849484636e-07 1.377785372074e-06 2.961183613169e-06 2.920241152128e-06 9.983849602934e-08 1.127871765876e-07 1.556932638675e-07 2.728473210402e-07 2.056165397729e-07 1.799867212791e-07 5.972300305015e-07 4.931418626755e-07 3.860588939578e-07 3.937308175419e-07 3.608017047516e-07 3.006445318016e-07 2.553944584646e-07 4.741826417671e-07 3.308307453031e-07 4.429495664973e-07 4.500035767949e-07 3.892781471679e-07 3.136473833466e-07 1.298868294432e-07 5.470183836268e-07 6.163444696633e-07 1.397148034364e-07 -1.079356442581e-08 -5.668703298171e-08 4.114707185357e-07 2.415429195911e-07 2.822258730436e-08 -1.861494913676e-07 1.271726182627e-06 2.976500927859e-06 -3.236153855346e-07 -2.522502516093e-07 -1.878275037319e-07 -1.807040090030e-07 5.075529179865e-07 4.100954461058e-07 5.301527291910e-07 5.898606959290e-07 5.207935504624e-07 2.862412514042e-07 7.092526866047e-07 6.733759842715e-07 6.949264663156e-07 7.819681070394e-07 9.192053102664e-07 6.200500994603e-07 -1.470194151908e-07 -4.196644809692e-07 -2.355150555775e-07 5.651565305556e-07 3.477114541537e-07 2.305293479889e-07 4.404715618187e-07 6.492912547901e-08 4.794717401023e-07 2.359401776592e-07 2.591199813564e-07 1.236567873083e-06 2.897948258094e-06 1.057748071291e-07 1.556392349114e-06 2.946657671793e-06 1.542802311505e-06 3.038198571533e-06 1.999968917363e-07 1.385201286420e-07 3.401554345666e-08 1.053155913617e-07 5.503223725291e-07 4.517963224083e-07 5.365977154179e-07 4.238543777471e-08 8.905773443744e-08 -6.384609753831e-08 -5.726877935383e-08 3.064655877832e-07 4.103144182019e-07 1.159951652670e-06 2.887196148306e-06 5.435818086409e-07 6.138132970852e-07 5.580839338087e-07 5.354821161131e-07 5.767550882376e-07 5.470350279490e-07 6.337825290421e-07 -2.168927523494e-07 -1.698727332233e-07 -1.798737528581e-07 4.674287942116e-07 6.220222149169e-07 4.899131571275e-07 6.781171773903e-07 5.026511003354e-07 7.354011149807e-07 -3.681151597569e-07 3.537469823466e-07 1.113123516481e-07 2.343560039005e-07 1.346537806318e-08 -2.958682205968e-07 -7.193436781770e-08 6.180590500653e-07 4.959764675587e-07 9.160317662960e-07 7.991152555802e-07 -6.653243709852e-08 -1.142932027684e-07 -9.046142900953e-08 -3.074199561455e-08 1.316384072542e-06 7.457467962986e-07 -1.591018538953e-07 -6.330192411411e-08 -5.517052342283e-08 6.743154220940e-07 4.254345381206e-07 5.131938478647e-07 5.148611118503e-07 1.605048433712e-06 1.214184569676e-07 2.903116309378e-09 6.538774258695e-08 1.049891398292e-07 1.986688317863e-07 6.966436066797e-08 1.143978851470e-06 8.986423996654e-07 2.943109763548e-06 1.636560102940e-06 3.459998976418e-07 8.046788585879e-07 5.631549278684e-07 1.215944270325e-06 4.210322883174e-07 3.520977666799e-07 3.924099950869e-07 1.164257634631e-06 9.706066069697e-07 7.523761986521e-07 4.708415877704e-07 5.678137540443e-07 3.379608777108e-07 1.141555366314e-06 2.847419679161e-06 5.094037499380e-07 3.525411275062e-07 1.304194478351e-06 2.849393664970e-06 2.639696445391e-07 2.181240432110e-07 -4.674799384953e-08 -1.511436299572e-07 6.456846458100e-07 6.927326432616e-07 1.229381277675e-06 2.716262073064e-07 2.144320816224e-07 4.962379356389e-07 5.211647983900e-07 6.628709599243e-07 7.931940534490e-07 5.784412637027e-07 4.440411636254e-07 6.809733332347e-07 1.027404244764e-06 2.492493488817e-07 -3.236884881159e-07 -5.325582776310e-08 1.255456424954e-06 3.119338149383e-06 3.053520365819e-07 2.671563016624e-07 1.581720126814e-06 3.209219889119e-06 -4.467645322621e-07 -3.113745185314e-07 5.688682834250e-07 5.910190308942e-07 1.154630722569e-06 5.267565569719e-07 6.237660333341e-07 7.209589164239e-07 3.465282558817e-07 3.679442320955e-07 -3.413052409118e-07 -3.549942530891e-07 4.008609982507e-07 7.842913717299e-07 5.110088750601e-07 7.628058688686e-07 3.680181737848e-07 5.825791444492e-07 3.853472904956e-07 5.456945504523e-07 5.715417929401e-07 6.899794216144e-07 4.828960475366e-07 3.890475586802e-07 4.945926853962e-07 3.757346056849e-07 1.433992872023e-06 1.639335846165e-06 4.035776893824e-07 1.506948722039e-06 2.050442824387e-07 -1.487980455052e-08 -1.191487751415e-07 -8.944732527887e-08 -9.464647864480e-08 2.100787437083e-08 4.153401567862e-07 -4.840354349173e-07 1.660438527208e-06 -2.902734216548e-07 8.722141682919e-07 -1.454549851459e-07 1.381743912615e-07 -5.107648797067e-08 -7.632047670943e-08 -3.768984579957e-07 -3.166390734112e-07 1.151287859448e-07 -1.657392289462e-07 5.658784043174e-08 4.437681954449e-07 5.345617595438e-07 1.458598276215e-07 4.268447576307e-07 3.342409485695e-07 2.618319366650e-07 1.459090606683e-06 2.955641074537e-06 6.546271685738e-07 6.159225254309e-07 6.762775118720e-07 -3.492843456364e-08 3.462464734877e-08 -8.406677808225e-08 -5.840163729258e-07 -6.261662136963e-07 5.149508809718e-07 3.984625179716e-07 3.684631148177e-10 4.668607578826e-07 8.328171603446e-07 -2.936434088400e-07 3.960636854840e-07 6.755003971171e-07 8.170096559695e-07 3.476572172169e-07 7.896582698144e-07 8.280983064952e-07 1.216619927368e-07 2.307755568857e-07 4.334519938615e-07 -3.354579202539e-07 5.845213597179e-08 1.577713017719e-07 -1.451702032244e-07 4.253188414269e-07 1.414424497479e-06 2.883855597595e-06 -3.472638094320e-08 6.120093358390e-08 2.009948690357e-07 1.719658611595e-07 1.228592578284e-06 4.868920674831e-07 -2.766191985228e-08 4.522630986189e-07 5.321553008122e-07 2.047248060565e-07 -1.062753013270e-07 2.619201271287e-07 8.256258856425e-07 -5.290281588367e-09 8.322681739411e-08 -2.150369934297e-07 -2.829129303958e-07 4.830859540420e-07 4.355184154367e-07 2.996320950174e-07 5.079419984991e-08 2.467144396729e-07 6.503943432759e-07 3.558876351364e-07 6.759390647931e-07 1.644099033466e-07 5.264042042770e-07 4.332939851266e-07 -1.843441886057e-07 2.696293655455e-07 8.259609054169e-07 6.351026612742e-07 2.168686650441e-07 6.816266954315e-07 5.266704376396e-07 7.462441598257e-07 6.398038513977e-07 4.244563910797e-07 4.788813053351e-07 -1.015070126081e-07 3.439593914879e-07 5.974761088218e-07 1.137789413437e-06 2.265734889502e-07 5.945952195290e-07 6.672964577229e-07 4.462202896051e-07 3.092051613030e-07 2.416678984514e-07 4.602105075778e-07 1.162698258382e-06 1.455033378319e-07 2.696545842130e-07 5.208429641626e-07 4.821781431189e-07 6.403686489562e-07 1.340173709310e-06 -3.458737545230e-07 -6.071583282698e-08 -6.621243584015e-09 -3.755631464308e-09 2.806438449419e-07 1.241883808242e-06 5.839710346024e-07 4.172315743907e-07 5.644599053467e-07 -2.440406833060e-07 -1.670790810926e-07 2.647081590151e-07 4.542977085661e-07 2.519151430402e-07 1.267172467842e-08 4.504664017438e-07 6.128441347688e-07 -3.035797067558e-07 -7.799548128446e-07 5.011738292889e-07 3.854956847907e-07 1.665002453467e-06 6.127474912820e-07 -4.321923704858e-07 8.448602960462e-07 5.767363513424e-07 3.562827375227e-07 1.158760019333e-06 9.035116257598e-07 5.067292317421e-07 8.979753688415e-07 8.622848247827e-07 7.279076224566e-07 9.201568236846e-07 8.074102821202e-07 8.162996497655e-07 1.006182655569e-06 9.810972412771e-07 5.758157784372e-07 9.679301111407e-07 9.171464064431e-07 6.369595743546e-07 9.316256881404e-07 9.256853516451e-07 6.896543481710e-07 1.048894025409e-06 8.898130299329e-07 5.332766696685e-07 9.528785945678e-07 9.434852652933e-07 4.444417765019e-07 8.499010716019e-07 8.414172784005e-07 5.388847672249e-07 8.588359477835e-07 9.514111616287e-07 5.421388689944e-07 8.907194683083e-07 9.900937873135e-07 2.658656008755e-07 6.517481290697e-07 6.012684361768e-07 -2.128300587816e-07 -5.157114163154e-08 9.982294914472e-08 7.862918780120e-07 1.313913223635e-06 1.169262818969e-06 3.341484901063e-07 6.685474561386e-07 6.293267586426e-07 5.065851846527e-08 2.790105513194e-07 3.683625664724e-07 7.895936640150e-09 2.282127113988e-07 1.547434442670e-07 4.079366065052e-07 7.348280081073e-07 7.902819750506e-07 5.168107407000e-07 9.988886374300e-07 9.548004911178e-07 4.144677153129e-07 9.021103754728e-07 8.832377943528e-07 1.703493285900e-07 4.236200978958e-07 3.697831095037e-07 -2.831006606306e-07 8.667023328528e-08 1.466123303713e-07 2.182767273886e-07 4.812943510695e-07 5.060536638263e-07 6.765506571861e-07 9.364759274819e-07 4.694381583144e-07 7.623338134310e-07 3.083637369665e-07 7.748576624792e-07 5.809232573585e-07 1.011904410739e-06 3.234573252782e-07 6.563068378813e-07 6.493421981098e-07 9.280986492949e-07 5.666242449182e-07 5.525643784978e-07 7.633065489225e-07 5.143688713832e-07 3.426472609493e-07 6.149107782487e-07 4.736988763830e-07 -1.167764766532e-07 5.811539815031e-07 -8.655877459636e-08 -3.550196506007e-07 -7.444842457836e-08 1.123053053166e-07 7.154745430027e-07 3.121158277924e-07 4.557622482255e-07 6.536114116393e-07 5.126291488719e-07 3.836228534790e-07 5.750518235538e-07 3.669039913969e-07 1.504357213667e-06 1.633276911278e-06 1.292583428691e-06 1.402700624994e-06 1.385146743141e-06 1.266051421524e-06 1.433202473858e-06 1.454622998753e-06 1.275831157400e-06 1.392171894523e-06 1.356041842755e-06 1.358095495485e-06 1.434127122877e-06 1.452931124875e-06 1.295939611011e-06 1.509693068155e-06 1.163104341152e-06 1.381197698486e-06 1.265876512940e-06 1.530332489810e-06 1.585853546320e-06 1.681535767499e-06 5.549147588500e-07 8.817842231097e-07 7.422867491129e-07 1.333486083792e-06 1.527286907956e-06 1.589682653319e-06 1.272885680471e-06 1.397863827713e-06 1.445123711679e-06 1.272247981868e-06 1.524419037481e-06 1.456768791502e-06 7.165578768240e-07 8.882786536732e-07 1.050283289922e-06 8.210628350765e-07 1.117313407822e-06 9.917926777495e-07 3.033318257537e-07 5.805585685511e-07 5.748713733825e-07 9.903333711099e-07 1.279223600809e-06 1.224269925052e-06 5.137430735343e-07 6.509019241184e-07 8.208459542116e-07 1.465230279860e-06 1.756506924465e-06 1.683919131771e-06 9.885054224169e-07 1.236759786759e-06 1.220711455492e-06 9.456969215716e-07 1.146384680816e-06 1.179410820857e-06 1.318617676667e-06 1.609694124801e-06 1.521122541749e-06 1.462472233974e-06 1.698443686134e-06 1.728306544331e-06 1.245732937762e-06 1.482136890112e-06 1.625504714530e-06 4.401595489592e-07 5.996812014743e-07 5.254615606376e-07 1.290950670101e-06 1.481377693507e-06 1.198131312604e-06 1.311391143376e-06 1.241009531079e-06 1.503588911022e-06 1.540848036352e-06 1.332513347842e-06 1.511934103526e-06 1.321562645798e-06 1.283526710674e-06 1.244636798511e-06 1.305233622702e-06 1.083763708479e-06 1.297855010066e-06 8.746437555729e-07 1.373750010699e-06 1.271343496793e-06 9.752039457246e-07 4.222398890030e-07 1.445793445164e-06 6.184599240921e-07 7.644425300260e-07 4.705374194326e-07 5.258337536077e-07 1.322691428762e-06 9.020006410184e-07 1.347527004639e-06 1.463499330901e-06 1.198104021544e-06 1.032150166451e-06 1.319529724063e-06 1.861739228145e-06 1.571993891133e-06 1.596980901795e-06 1.554435153714e-06 1.642886589881e-06 1.628324028070e-06 1.594750806695e-06 1.570518210883e-06 1.559440169191e-06 1.659445082682e-06 1.673409348931e-06 1.818288141556e-06 1.734389467853e-06 1.618368560226e-06 1.589457550571e-06 1.643921733343e-06 1.583301367187e-06 1.574544773346e-06 1.546795468175e-06 1.792055133327e-06 1.702921469802e-06 1.845502543423e-06 8.026289034705e-07 8.878969813500e-07 9.337771168452e-07 1.755219203298e-06 1.833385496056e-06 1.708298029282e-06 1.966425142104e-06 2.018212350379e-06 1.963141277142e-06 1.976938546532e-06 2.082086026433e-06 2.110408505482e-06 1.484493736998e-06 1.377025016732e-06 1.405099044375e-06 1.911482911227e-06 1.846251794428e-06 2.021125323835e-06 1.634478281050e-06 1.802948564313e-06 1.637524679353e-06 1.612575382129e-06 1.658975432025e-06 1.689835303441e-06 8.157562620762e-07 9.642351134271e-07 9.073006043443e-07 1.058255580245e-06 1.240642257965e-06 1.132774089154e-06 9.902228784218e-07 1.039523061107e-06 1.182767883308e-06 1.305558223807e-06 1.482408498466e-06 1.370986469080e-06 1.894099453275e-06 2.038845811898e-06 1.886654040827e-06 1.835194478160e-06 1.910541376372e-06 2.032693202427e-06 1.618551631881e-06 1.705046583468e-06 1.792787764167e-06 1.505846802254e-06 1.611121130935e-06 1.666290985772e-06 1.738952888671e-06 1.539869802415e-06 1.630559655711e-06 7.941783720720e-07 9.433920994707e-07 1.208674810816e-06 1.300573679841e-06 1.706220277751e-06 1.717307616061e-06 1.909458209167e-06 1.557333577787e-06 1.705566359612e-06 1.576143758893e-06 1.572834214070e-06 1.620072197360e-06 1.605602469689e-06 1.982764688007e-06 1.838837707546e-06 1.777196417353e-06 1.925753231249e-06 9.046910563393e-07 8.747172381559e-07 1.210368067613e-06 1.743467405441e-06 1.944567480778e-06 1.721082573629e-06 1.387446900959e-06 1.489309355515e-06 1.254724830913e-06 1.008848651323e-06 1.616541194029e-06 1.884411699261e-06 1.802670832460e-06 1.668909386560e-06 1.656722944006e-06 1.645390393257e-06 1.573982848264e-06 1.773764058818e-06 1.694196089479e-06 1.647669355971e-06 1.649667994127e-06 1.603519805238e-06 1.527367069092e-06 1.634177692851e-06 1.566688340055e-06 1.650811955435e-06 1.767006258883e-06 1.639658701784e-06 1.639244649489e-06 1.926505760057e-06 1.772276724927e-06 1.857420132650e-06 1.913309611958e-06 1.791943490834e-06 1.843305631635e-06 1.808907693140e-06 1.670685162482e-06 1.646161760802e-06 1.876464096852e-06 1.790989786843e-06 1.859186798675e-06 2.021411079572e-06 1.879537783649e-06 2.073792840819e-06 2.222854149800e-06 2.120589650789e-06 2.158277445564e-06 1.801332965478e-06 1.738095733999e-06 1.669633299682e-06 1.517387724256e-06 1.596686351853e-06 1.504223335615e-06 9.821523681691e-07 9.839154119826e-07 9.761033733031e-07 1.328741559026e-06 1.157006131729e-06 1.340160336165e-06 1.118830478731e-06 1.245963869721e-06 1.080197057627e-06 1.802159085121e-06 1.772499345590e-06 1.715888609621e-06 2.258698463630e-06 2.193666805237e-06 2.124858046302e-06 2.120358169660e-06 1.985858747237e-06 1.926535004364e-06 1.389749350518e-06 1.360764892767e-06 1.275543528391e-06 1.010189312762e-06 1.006284887975e-06 1.055239822968e-06 1.607306888599e-06 1.475001284099e-06 1.603784381299e-06 1.691787389243e-06 1.642594393011e-06 1.842511543499e-06 1.885559544924e-06 1.858723300687e-06 1.764456828087e-06 1.680947344084e-06 2.208630168122e-06 2.152675612036e-06 1.941789046471e-06 1.862971662551e-06 1.771983912777e-06 1.711702864287e-06 1.663021301342e-06 1.628688213176e-06 1.809270270141e-06 1.881712951803e-06 2.258090898498e-06 1.063635301701e-06 1.926686451556e-06 1.471634444032e-06 9.804294161915e-07 1.217509408938e-06 1.144881060485e-06 2.167245482187e-06 1.384332774210e-06 1.598280821396e-06 1.899932040685e-06 1.728670822377e-06 2.024562864672e-06 1.839436191242e-06 2.216020932525e-06 1.664424329476e-06 1.672573571657e-06 1.322732441041e-06 1.597379905197e-06 1.433937589248e-06 1.448801516128e-06 1.683722200618e-06 1.619023550476e-06 1.573623858192e-06 1.594531908395e-06 1.375918422034e-06 1.406581573525e-06 1.556644208137e-06 1.324525045076e-06 1.341757207586e-06 1.591181102985e-06 1.373326749580e-06 1.347589202289e-06 1.835121959725e-06 1.703610032503e-06 1.685280966939e-06 1.834696588380e-06 1.771710995460e-06 1.805053656726e-06 1.827789572753e-06 1.699569399366e-06 1.597014734706e-06 1.911736736355e-06 1.665393595131e-06 1.876827165988e-06 2.185198267739e-06 2.027501445760e-06 2.088847204461e-06 1.771165699906e-06 1.637045623010e-06 1.597234841022e-06 1.548067391041e-06 1.407715056110e-06 1.265099250068e-06 1.007814254714e-06 1.007324197356e-06 9.264966373564e-07 1.794115583328e-06 1.596223362748e-06 1.605718959010e-06 1.241706589202e-06 1.208173219911e-06 1.087561184121e-06 1.100251413968e-06 9.156565621644e-07 1.073161280582e-06 1.516114150389e-06 1.355045116253e-06 1.456085269236e-06 2.282843924599e-06 2.075007492828e-06 2.080449336628e-06 2.087169196562e-06 2.064606053291e-06 1.893891977460e-06 1.625704634357e-06 1.442829165846e-06 1.565961590221e-06 1.101719431325e-06 9.705748609104e-07 1.780401982304e-06 1.693446835558e-06 1.811319459185e-06 1.656941955559e-06 1.289061460441e-06 1.221190306028e-06 1.470727578780e-06 1.263403573950e-06 1.008844312701e-06 9.219047097231e-07 1.979706914948e-06 1.990417413521e-06 1.891916567611e-06 1.626677255814e-06 1.669533446255e-06 1.578527646573e-06 1.840711152923e-06 1.696424078473e-06 1.772732409021e-06 1.598131402467e-06 1.576416428074e-06 1.497756089491e-06 1.789905986107e-06 2.308135506758e-06 1.665261966008e-06 2.151563241694e-06 1.571903762047e-06 1.832899808432e-06 1.312249431307e-06 1.456294403058e-06 2.155348939198e-06 1.907733078245e-06 9.557360734331e-07 1.726751667408e-06 1.169608109404e-06 1.949490602991e-06 1.851051408102e-06 7.357612580843e-07 1.353032244786e-06 1.447306105191e-06 1.167554532694e-06 1.199443748063e-06 1.377399577649e-06 1.107527745254e-06 1.129151123905e-06 1.266380282370e-06 1.064608870632e-06 1.072913554579e-06 1.284477338167e-06 9.528969567474e-07 9.944018221700e-07 1.178707820745e-06 8.623662274345e-07 9.647303251532e-07 1.663942803525e-06 1.180720826266e-06 1.184684113741e-06 1.998534473863e-06 1.756543246949e-06 1.576920290700e-06 2.033075871789e-06 1.668028021002e-06 1.766401295221e-06 1.333504752606e-06 1.080578872892e-06 1.227677792789e-06 1.769634591332e-06 1.290684309063e-06 1.308680825022e-06 1.451009673233e-06 1.227188790608e-06 1.232304362178e-06 1.032753458072e-06 8.226111344374e-07 9.166977703743e-07 9.622380238766e-07 6.121925940706e-07 7.569214360803e-07 9.777250371802e-07 8.786395539680e-07 7.367271609412e-07 1.491308431617e-06 1.190447983769e-06 1.197982229145e-06 1.412147393787e-06 1.087513873412e-06 9.721213045673e-07 1.716867689813e-06 1.404830398270e-06 1.338673540682e-06 1.873515995139e-06 1.487881284878e-06 1.575674052013e-06 1.577215495210e-06 1.313389418927e-06 1.327206556692e-06 8.580616542704e-07 5.875170849949e-07 6.350772213319e-07 1.295497430627e-06 1.095338029582e-06 1.030224306763e-06 1.334554407215e-06 1.145284782674e-06 1.133536135432e-06 1.442450526429e-06 1.273042329197e-06 1.247440807565e-06 1.055522863896e-06 1.968647260967e-06 1.612498140154e-06 7.642045670136e-07 6.011234865965e-07 1.595207796204e-06 1.319375710953e-06 1.658330845028e-06 1.441104090236e-06 1.145306652941e-06 1.332309830553e-06 1.173463653186e-06 1.273827116416e-06 1.466877797504e-06 1.458366164094e-06 1.978580120200e-06 1.678337568223e-06 9.501833797186e-07 8.814458718062e-07 1.093814048920e-06 2.032656748358e-06 1.504432743710e-06 1.658100544602e-06 1.343123795943e-06 1.902287412719e-06 1.298156681828e-06 1.430173454418e-06 1.545853702036e-06 7.980629445376e-07 1.432762925391e-06 3.213356507601e-07 2.334626940927e-07 9.821621454907e-07 6.464278573323e-07 6.561857274043e-07 6.688127979512e-07 5.423449000292e-07 4.473741407957e-07 6.488349047557e-07 3.028878512326e-07 1.990655475893e-07 1.001728271527e-06 6.653926137244e-07 6.678102547370e-07 8.605842080909e-07 5.328046116394e-07 5.315462927961e-07 7.361099660951e-07 3.676624786757e-07 4.064931541783e-07 8.653741770578e-07 4.136107756029e-07 5.108664457490e-07 1.037645539161e-06 6.585765656673e-07 6.643117320809e-07 1.152080731317e-06 7.592487707832e-07 7.843572305343e-07 1.396551517596e-06 9.674563270754e-07 9.555430451640e-07 1.160533270048e-06 8.596020888315e-07 7.770382460949e-07 9.575382734953e-07 7.163041176540e-07 5.862439235096e-07 6.620252956216e-07 4.630853525287e-07 2.857722442852e-07 3.198510363459e-07 5.619038754125e-08 4.428296341580e-08 6.606629389145e-07 3.399163701494e-07 3.668676924037e-07 9.423493537569e-07 5.856292599289e-07 6.019386946259e-07 1.050281921378e-06 6.445086182731e-07 7.412238875299e-07 1.480631604947e-06 8.797704714989e-07 1.030148109050e-06 1.268194880154e-06 9.447019682897e-07 8.740447554883e-07 5.045929043590e-07 9.869199587375e-08 2.369053523068e-07 8.805942126467e-07 5.420110946342e-07 5.604322957176e-07 5.475900417688e-07 8.568362214983e-07 5.436060281058e-07 1.071737349984e-06 8.981480670316e-07 1.355073161850e-06 8.592926106055e-07 6.950206749530e-07 2.951660291683e-07 7.703158468687e-07 8.573230309683e-07 4.803018433480e-07 9.595791237549e-07 6.022244182952e-07 4.982260706120e-07 1.213821859381e-07 9.140954945428e-07 9.867897939108e-07 6.204018962524e-07 9.917607395091e-07 8.708275163868e-07 1.425686354660e-06 1.011582197179e-06 1.003871140772e-06 7.100349082835e-07 5.414303104789e-07 3.566474155155e-07 1.413664357778e-06 1.149095131674e-06 7.243177164352e-07 1.230721303366e-06 7.995509514610e-07 1.181767914473e-06 5.486143354676e-07 8.864177269237e-07 7.153011734910e-07 -1.400702263550e-07 -6.071338431501e-09 2.121050729415e-07 -6.667726228031e-08 2.700054257856e-08 1.040678782104e-08 -1.576916362886e-07 -8.301978741996e-08 3.341746878196e-07 9.040865626751e-08 7.366115390343e-08 3.208525597235e-07 1.108041142014e-07 1.308378073772e-07 2.738551434362e-07 1.866839873258e-08 6.335688492953e-08 3.124373659173e-07 4.912721884099e-08 7.641924135747e-08 5.689955439834e-07 1.727758658226e-07 2.265674658005e-07 4.532743641378e-07 1.256933205153e-07 2.537072489413e-07 3.804703155996e-07 8.952010046987e-08 2.263531517830e-08 2.003796511460e-07 -1.263321418561e-08 -3.433149984363e-08 4.340600921603e-08 6.338407371761e-08 -2.453880699875e-08 -9.015408365879e-08 -1.101995717497e-07 -1.399235297092e-07 2.432734991560e-07 5.549405741486e-08 3.141002885365e-08 9.810689470899e-08 -6.779940227750e-08 5.097547238600e-08 4.813147084231e-07 2.094228481432e-07 1.526807842023e-07 1.841918450499e-07 5.139954441247e-08 2.819855017338e-07 4.288731474462e-08 1.057710634406e-07 5.200169361394e-07 2.185680329869e-07 1.690053195722e-07 4.181232852319e-07 2.507487362577e-07 1.834477059984e-07 2.297771054484e-07 7.514186965696e-08 4.617413953401e-08 2.705783485090e-07 2.215699295379e-08 8.845330451344e-09 9.571077386228e-08 -4.903260960454e-08 -4.791556350243e-08 3.756765177314e-07 2.011654114903e-07 9.364209972224e-08 -7.730810875695e-08 4.960357936464e-07 1.748438202037e-07 9.558077476109e-08 2.370856711213e-08 3.790192111546e-07 1.303782789195e-07 4.921439507125e-07 1.803360251114e-07 3.719704121885e-07 2.844555625202e-07 1.486137656663e-07 3.091515056920e-07 2.742406504404e-07 2.874147384694e-07 2.355066720349e-07 4.730734449903e-07 1.609409052363e-07 2.089812037939e-07 3.221825443616e-07 6.423336314384e-07 -3.531357972310e-08 1.631048369919e-07 2.900567995502e-08 3.956975357418e-07 2.184675236148e-07 4.600811171194e-07 6.433653063260e-07 4.724264101691e-07 4.014461158252e-08 1.912914633408e-07 6.796148713896e-08 -1.049344801034e-07 1.311002019653e-06 4.099622192370e-07 3.586880217984e-07 7.219395505476e-08 7.902819190862e-07 1.019645538562e-06 3.185072038181e-08 8.764673797710e-08 -6.009923215118e-08 1.278034913102e-06 1.486567292455e-07 -1.825957618360e-07 3.048054878464e-07 2.541580985839e-07 8.984709141221e-07 1.207265028968e-06 7.678592724774e-08 -5.930609110738e-08 -1.064862988779e-07 1.239624111185e-07 1.150476171814e-06 -1.501981558458e-07 1.167873947101e-06 3.367808714048e-07 4.146039371820e-07 3.471705069291e-07 8.424532690213e-07 -9.662023922748e-08 2.609144059945e-08 1.111886893141e-06 1.215694097357e-06 1.987571994098e-07 9.701113584846e-08 1.356461508785e-07 1.185904103896e-08 9.264250771956e-07 6.707464300888e-07 4.206232827689e-07 8.812168669134e-08 1.531776858772e-07 7.306380404332e-08 2.439860165665e-07 2.846433680932e-07 2.953105151208e-07 2.963980678408e-07 6.572666905448e-08 2.269150468310e-07 1.228181482258e-07 2.770245621624e-07 1.795854623648e-07 -2.035331578143e-07 -3.682741118041e-08 -1.050036829928e-07 -5.406164048179e-08 1.200220959729e-06 7.181910448746e-07 6.773719309581e-08 2.586712543592e-07 5.272495600831e-07 6.707319255339e-07 3.615182061374e-07 1.159931699294e-07 6.547885983418e-08 6.299583529597e-08 5.415602793732e-07 5.893463014433e-07 2.291260751450e-07 2.219224033995e-07 1.400437521444e-07 6.986338675311e-09 -2.847998029644e-07 1.237539814561e-06 -1.330276057633e-08 9.557765328825e-07 1.051701624832e-06 1.235622433586e-06 3.937520446498e-07 9.351618277693e-07 9.271966925385e-07 4.925900584335e-07 -1.542752348024e-07 -1.016500061896e-07 -8.877645558576e-08 -6.384382318056e-08 -2.403540342018e-07 -2.776752355954e-07 -1.783344083126e-07 -1.079520250168e-08 5.306012578449e-08 -2.242303298037e-08 5.903380755300e-10 6.939765211709e-09 6.215251077254e-08 -1.015140993401e-07 -1.034080542957e-07 -8.471632252074e-09 -4.427434252157e-09 -4.239737719987e-08 5.183477957973e-08 3.353170272461e-07 1.219029798854e-07 1.719162848736e-07 5.886860222202e-08 9.166334563481e-08 1.037994792816e-07 4.228307915951e-08 1.337463168436e-07 9.785790079263e-07 4.820448651513e-07 2.906363930898e-07 8.389061033764e-07 3.781330122906e-07 2.205598883303e-07 1.615917727604e-07 5.522317084863e-08 2.184052724340e-07 1.262445588532e-07 8.591465873075e-08 1.755471810253e-07 7.280864329344e-09 -1.253486766266e-07 -1.582557144850e-07 -3.839540302315e-08 -4.791961108490e-08 4.452517963559e-08 -1.224950608283e-08 -2.530567587348e-08 -9.829900359335e-08 -3.787667991149e-08 -2.199493424757e-07 -3.006450811178e-07 -2.490861333197e-07 -2.385566822059e-07 -2.188124434449e-07 -1.483691637376e-07 -8.981319873504e-08 3.855227154823e-07 3.628758857654e-07 2.366817254699e-07 3.206513837706e-07 2.983806626661e-07 3.836263489317e-07 3.463627518486e-07 2.427497548014e-07 3.234123532314e-07 3.584802192889e-07 2.776706881765e-07 2.241832563403e-07 3.770022269460e-07 4.820668784827e-07 5.066410778679e-07 3.126870240418e-07 4.521315667728e-07 2.572043242996e-07 8.205877373853e-08 -5.477789645464e-08 1.417165725289e-08 5.096566703710e-07 7.338672597629e-07 9.370522263946e-07 7.284853553691e-07 -2.147182726404e-07 3.442444946280e-08 9.214380171865e-07 -1.515045634980e-07 -1.341261964971e-07 -1.804057906359e-07 -5.528969144442e-08 1.777084677987e-08 5.136518475357e-08 2.867837012294e-07 5.314018489374e-07 4.210574988500e-07 3.111352993961e-07 4.933373434800e-07 5.253277959345e-07 2.340816937306e-07 4.441951168791e-07 3.377780174277e-07 1.305732459932e-07 1.559231977134e-07 1.263079662650e-07 1.105717543059e-07 9.388752068207e-08 5.712888785345e-07 4.935499317146e-07 9.018118853313e-07 6.661904275822e-07 3.597475521763e-07 3.589113582422e-07 4.004182880808e-07 5.617434864046e-07 3.433013892036e-07 3.028230662580e-07 1.096888130497e-07 1.292300429446e-07 8.818296252902e-08 -1.506632719039e-07 -1.475976023388e-07 3.542084282587e-08 3.504751213923e-07 2.231347802194e-07 2.824380619256e-07 9.301352117238e-08 3.639663237556e-07 4.436589441596e-07 3.413600010702e-07 4.921382851248e-07 1.433448762361e-07 2.007498120486e-07 3.792409655167e-07 2.538197270594e-07 8.390569324010e-08 -5.354482153752e-08 8.875159343773e-08 1.400438710829e-08 1.980704007127e-07 -1.205646065988e-07 1.249763375509e-07 -3.991198319658e-08 -6.526990202555e-08 -2.939495702513e-08 1.502467912190e-07 1.175133415926e-07 2.954880461576e-07 2.991543347563e-07 1.137423730670e-07 -7.261358171680e-08 1.807268629902e-07 -7.619909559596e-08 -3.372567998178e-07 -3.567792127373e-07 -2.840518492630e-07 1.554898042583e-07 3.503971697207e-07 1.695288453041e-08 6.262795451413e-08 5.330848208936e-07 3.423443978555e-07 4.728518249956e-08 4.415936005244e-08 6.651766426051e-08 1.328370849685e-06 2.604211366065e-07 1.236104864306e-07 3.486184132596e-07 3.599129076277e-08 3.231287316526e-07 2.495701850876e-07 1.665571666709e-07 9.220049440026e-08 2.746725628746e-07 4.694327518341e-07 5.198611234402e-07 4.420883148854e-07 1.700857702924e-07 2.150069813842e-07 1.617874635819e-06 1.173373150309e-06 7.837068740184e-07 7.284927461985e-07 8.234545841968e-07 6.264767013456e-07 7.472008270184e-07 5.468007518775e-07 5.467076396391e-07 6.804735878944e-07 3.910461822771e-07 6.770300245280e-07 6.908372973955e-07 1.086455837803e-06 8.876672304409e-07 2.325326803263e-07 1.267094301968e-06 1.268520280563e-06 7.965143860042e-08 -3.539849073290e-09 7.830974258754e-08 7.754529528540e-08 3.506805270797e-07 4.186804874677e-07 3.994505413815e-07 4.331061942384e-07 3.723948394228e-07 1.362832571796e-06 9.242150124122e-07 1.160592815066e-06 7.469505367189e-07 8.067655626539e-07 1.958371657708e-07 3.792629534732e-07 -6.136971787978e-10 -2.131716707872e-07 -1.766062344004e-07 2.980012417711e-08 3.337249722362e-09 3.261187486373e-07 4.016361688979e-07 8.396990041654e-07 9.539027501641e-07 6.748112292584e-07 7.885509784935e-08 6.712824540253e-08 3.048107869966e-07 2.437047077780e-07 2.311532900606e-07 4.414901463921e-08 8.245448431757e-07 -1.833006130159e-07 -1.632181541688e-07 -9.006494449418e-08 7.716858350806e-07 1.832467832060e-07 8.200025875546e-07 -1.161258342841e-07 -8.966498859864e-08 -1.612441095054e-07 5.685230756600e-07 6.481073888364e-07 5.253255948582e-07 -2.274365958757e-07 1.094445500576e-06 1.023360709736e-06 1.061807514104e-06 6.039817532245e-09 5.067908311497e-07 4.708721049327e-07 3.977698177941e-07 4.045207063717e-07 -5.503667298822e-08 -1.719064888081e-07 4.272561429059e-07 4.701924585722e-07 4.882003573356e-07 2.537293434844e-07 4.581263507362e-07 3.887842888875e-07 5.079757086797e-07 -8.624495557966e-08 -1.246291422163e-07 4.839318006899e-08 3.330634035797e-07 7.637343491085e-07 3.145951681649e-07 4.744878433805e-07 1.128554190773e-06 4.811251618400e-07 -6.301412916679e-08 1.012918493300e-06 1.005135474242e-06 1.561703543263e-06 -1.780553573293e-07 -4.184304310526e-08 1.352302143191e-06 -3.566579980233e-08 5.567345764191e-07 4.043842418972e-07 4.192652838441e-08 5.775501982928e-08 3.744542635156e-08 5.135036557072e-07 1.295563522248e-06 -1.909204709535e-07 8.974432944419e-09 -1.158319411476e-07 1.282387234694e-07 1.041019137024e-07 -1.171918706332e-07 -5.462811763669e-08 -7.241606315293e-08 1.127252950939e-08 1.540158601376e-06 5.511616278519e-07 1.046769796526e-07 1.558738328604e-07 2.210574681737e-07 4.792288078176e-07 3.612534521549e-07 3.249469770451e-07 7.185491144641e-08 5.879934470790e-07 2.817535256268e-07 8.893719856220e-07 7.574646827445e-07 1.650789797993e-09 4.709454548301e-07 1.504206784824e-06 4.308882703529e-07 1.190400473247e-06 1.343784706199e-06 1.066971718758e-06 6.642034633929e-10 9.588052293434e-08 1.081508796808e-07 1.567298477972e-08 3.775088201379e-08 2.960092211614e-07 3.924595204969e-07 2.398447276463e-07 6.544100253686e-07 2.106843286407e-07 1.452243581311e-07 4.423800595149e-08 8.931828538516e-08 2.478806112439e-07 -1.760432258569e-07 -5.359736856254e-08 -2.888212769102e-08 1.272152687755e-07 9.890552832108e-07 -6.406710537230e-08 2.907697797629e-07 2.991644271234e-07 -9.704907156369e-08 -1.207600699138e-07 4.555356446265e-07 1.964477496593e-07 8.092656923215e-08 4.183313038133e-07 5.653821094090e-08 2.170675125523e-07 7.462039256538e-08 2.507952204869e-07 -2.388374971674e-07 2.116693595229e-08 3.616137348869e-07 8.949361660781e-08 5.967799921617e-07 4.074650973178e-07 4.853853098904e-08 3.901424417251e-07 -2.612065721590e-08 3.804642630450e-08 5.492992543067e-07 7.293426351450e-08 1.828334638788e-08 4.009488174224e-07 3.233154658447e-07 3.381866886069e-07 2.132538105247e-07 3.789922171683e-07 5.532569095997e-08 4.840622097618e-08 -1.032428068986e-07 4.811598590852e-08 1.162387663479e-07 4.350442694414e-07 -1.197148301932e-07 1.774086052287e-07 1.104474162435e-08 1.119790488502e-07 -4.941632217177e-08 8.144226049599e-08 2.600025631676e-07 8.599080367454e-09 -1.029842822789e-07 2.301051742168e-09 -2.848403849361e-08 1.745733035283e-07 9.559397495312e-08 -1.181319538192e-07 -1.483872296677e-07 4.787737940616e-07 1.154695620137e-07 4.162283964372e-08 2.272213359300e-07 -1.091863879453e-07 4.634370788834e-07 2.559807391627e-07 5.678477578955e-07 7.112003826338e-07 -1.062240597852e-07 2.921005358384e-07 5.899560803272e-08 -5.511342703771e-08 4.945666903549e-07 1.293400540944e-07 1.651457913170e-07 5.081974611933e-07 1.658468494185e-06 1.332091134688e-06 -1.046969794320e-07 2.082049727583e-07 6.459845745337e-08 5.847229577311e-08 3.160026845480e-07 -1.684176635511e-08 3.691910982053e-08 1.192604561892e-07 -7.741598530531e-08 -4.022836283133e-08 1.595366131522e-07 -8.240563828529e-08 -1.908719893183e-07 3.311456858006e-07 2.107467568181e-07 -2.614436919800e-09 3.743919894005e-07 3.280777148037e-07 2.210247209904e-07 1.587651501275e-06 3.888153000793e-07 5.148589160330e-07 2.997347509360e-07 1.979642714210e-08 -1.402252199586e-07 1.941944905492e-06 2.480504886549e-06 1.003823259757e-06 2.134674295245e-06 1.244986672388e-06 2.001964497102e-06 1.718531211339e-06 1.979023375782e-06 2.281131883665e-06 1.722593857322e-06 2.042478576650e-06 1.329324404842e-06 2.963293422497e-07 1.806408363163e-06 1.973215540268e-06 1.736534076125e-06 8.819506214314e-07 2.151235344046e-06 9.240307345698e-07 1.181292360288e-06 1.915718173982e-06 1.982442256440e-06 1.102301604029e-06 1.536998896828e-06 1.141424832366e-06 1.726146405991e-06 1.682245548289e-06 1.464488981016e-06 1.244893142016e-06 1.825589507856e-06 2.384274626112e-06 6.223922354771e-07 1.919582550217e-06 1.375768701545e-06 1.755754626227e-06 1.278890093879e-06 1.447279639802e-06 1.402370130717e-06 1.380635742705e-06 1.860349121098e-06 6.682470361303e-07 1.618352730080e-06 1.606115896827e-06 1.968047566094e-06 5.341319078993e-07 4.757743069804e-07 8.000273055367e-07 1.834371127907e-06 4.626098189730e-07 2.127585316177e-06 1.288084056469e-06 1.687699142644e-06 1.096395614749e-06 3.743317184574e-07 1.902476703045e-06 1.269335359022e-06 1.632064535868e-06 8.208028980246e-07 1.698598329024e-06 2.025345859505e-06 1.398990959080e-06 1.422939565634e-06 1.816313077782e-06 1.940573971436e-06 1.870778353796e-06 1.245581735995e-06 6.082346597771e-07 8.685858923645e-07 1.731261378774e-06 1.943686550060e-06 7.421689393256e-07 1.917297204748e-06 6.200533870355e-07 2.311196934153e-07 2.274270402557e-06 1.349255301424e-06 2.033570337431e-06 1.370688478905e-06 2.428604570808e-06 1.617082805788e-06 1.943160741922e-06 1.285989144921e-06 1.352154050531e-06 1.290077299973e-06 1.447520950566e-06 7.299842111306e-07 8.930266000168e-07 1.761029498442e-06 3.741295674365e-07 1.870357552430e-06 1.346434880253e-06 1.886046911009e-06 1.380123106625e-06 1.303614028391e-06 1.267974218924e-06 1.936761398260e-06 1.024999187423e-06 -3.494021327789e-07 6.355031880752e-07 6.756927980163e-07 1.702162195265e-06 5.773782438205e-07 1.160760350244e-06 1.188981870674e-06 1.185318060739e-06 1.876543439639e-06 1.198992980816e-06 1.960462018894e-07 1.978682930281e-06 1.848764510452e-06 1.091800728069e-06 1.820163382900e-06 1.996261505241e-06 1.601422255349e-06 1.296558526923e-06 8.812811900398e-07 1.148845906190e-06 1.816562877614e-06 9.071219769907e-07 1.355135381840e-06 1.456520567883e-06 2.321166331298e-06 1.542888231276e-06 1.498476030081e-06 1.824011907405e-06 1.572100963101e-06 1.464163505388e-06 -1.854785954363e-07 3.257243809572e-07 6.245025690178e-07 5.847587242535e-07 5.215156945918e-07 1.204227327780e-06 2.107801832416e-06 5.195737356664e-07 1.237149783862e-06 1.548898531136e-06 1.922100196796e-06 1.854406282044e-06 3.348355561402e-07 1.657327306469e-06 1.568822453915e-06 8.534108388104e-07 1.663828623561e-06 1.223907809105e-06 1.929251044862e-06 1.164020614413e-06 2.116002226111e-06 6.264988656219e-07 6.121292163608e-07 1.244525297898e-06 1.101281135117e-06 1.295414214750e-06 1.048153137735e-06 1.033763917875e-06 8.073813577595e-07 2.034321984667e-07 2.003449169691e-06 2.226304952096e-06 5.009333172526e-07 1.742994792562e-06 1.915724210652e-06 1.600766847262e-06 1.959956799525e-06 1.228985166947e-06 8.560311395671e-07 1.572129477109e-06 7.213236130802e-07 7.490416002986e-07 4.473291147098e-07 1.732367192604e-06 2.008748365593e-06 1.486236070004e-06 2.111531147594e-06 7.761995024862e-07 9.041807449625e-07 1.767343173721e-06 1.735298262717e-06 1.809598539895e-06 1.794210608335e-06 1.521130111319e-06 6.178307977225e-07 6.817723467151e-07 1.733225887932e-06 1.833657433979e-06 1.580217889851e-06 1.147011290088e-06 9.811906623216e-07 1.892157455958e-06 1.081652917588e-06 1.828469629144e-06 1.229335482706e-06 1.521056178820e-06 -3.529815018576e-08 1.236442577822e-06 1.598482411774e-07 1.716445260074e-06 7.018566587021e-07 1.316561471228e-07 7.827725244471e-07 5.875970830379e-07 1.804133356458e-06 1.437976048053e-06 1.694970470650e-06 3.219520104211e-07 8.375526012107e-07 1.513764053574e-06 1.569700141223e-06 -1.754937708307e-07 2.920956133338e-07 3.976197214552e-07 8.016002297962e-07 9.765185175387e-07 1.017544018294e-06 1.206182464015e-06 6.856399620064e-07 2.381364258846e-06 1.595547070430e-06 9.937513634271e-07 4.878192875130e-07 4.115655735407e-07 1.321877023403e-06 1.583683346476e-06 2.042585123829e-06 1.200392731067e-06 1.422721207891e-06 6.617959594347e-07 6.614510728628e-07 1.950409100321e-06 1.775892707201e-06 1.948346512965e-06 6.798178532137e-07 1.273857750848e-06 5.034942198432e-07 2.109396548021e-07 1.819592133433e-06 1.562663108176e-06 1.555083522614e-06 1.927028096298e-06 1.083142453244e-06 -2.014876004482e-07 -8.832574420630e-08 1.080663981706e-06 1.021685890452e-06 1.371741476915e-07 1.417240787881e-06 1.846810505792e-06 1.182175467456e-06 1.767430598907e-06 -3.482829332583e-07 1.680551713442e-07 
        </DataArray>
        <DataArray type="Float64" Name="STRESS_YY" format="ascii">
          -4.596978475687e-06 -6.260067672829e-06 -6.569072725739e-06 6.712648708489e-08 -2.136908721084e-07 3.666058657240e-07 5.177893767083e-07 -3.029898172358e-07 -1.325939712989e-07 -4.694369440254e-06 -3.917106143941e-06 -3.387851289875e-06 -1.407373015283e-06 -6.747243277674e-07 -2.956633501978e-07 5.532306340492e-06 3.598889394769e-06 4.006347386702e-06 2.603432876154e-06 4.424462314548e-06 8.689342052004e-07 1.255528694492e-06 1.060521558053e-06 4.771762959096e-06 4.565339713677e-06 5.507249639436e-06 8.692960163344e-07 1.947004538557e-06 1.751690188858e-06 -5.602971865828e-06 -4.626385003862e-06 -3.108612958232e-06 -2.229012752094e-06 -1.057757730827e-06 -2.065552875683e-06 8.204857182130e-07 1.388853620998e-07 1.824418611814e-06 -4.142519687771e-07 -1.554321941166e-06 4.277254201391e-06 5.695680877160e-06 2.984106922307e-06 2.848615232792e-06 7.010575257070e-06 6.937180430914e-06 8.696875445728e-06 1.352121665965e-06 4.038593864179e-07 -1.131715378300e-07 -3.358819216241e-07 2.685280143044e-06 -7.584148227065e-07 1.950053521327e-07 3.018599669385e-06 5.389496245922e-07 1.408892276707e-06 -4.607256656440e-06 -3.539440246373e-06 -2.427370267307e-06 -2.213087049392e-06 1.823017894642e-06 2.968820987835e-06 -3.345924727538e-06 -2.433108227369e-06 2.230126982206e-06 3.054324019480e-06 -6.892109990867e-07 8.204258777530e-08 -2.327249063091e-06 -2.569124709713e-06 -2.542280398643e-06 -1.829144455012e-06 -8.271974187846e-07 6.596548751977e-07 5.087252694446e-07 4.386922852125e-06 3.774106199931e-06 -4.166458301036e-07 -6.353592142035e-07 -4.996631486639e-07 4.673069106702e-07 3.566080341921e-07 2.434104310873e-06 3.273908708357e-06 -1.205261861616e-06 -7.506956959021e-07 -3.196485942518e-06 -3.969275998668e-06 1.498779477194e-06 3.301900533963e-06 -1.627727828510e-06 9.366165160834e-06 1.450235202298e-05 7.962593391812e-06 1.106872601137e-05 -7.821016201748e-07 -6.760460925391e-07 9.791402403931e-07 3.790373167311e-06 1.889598174862e-07 1.395852330737e-06 5.944687691538e-06 6.772796303476e-06 6.639434117635e-06 9.189893490142e-06 6.047990023580e-06 -2.969930980384e-06 2.481490879776e-07 -3.832448016539e-06 -4.487153114556e-06 -4.808033523741e-06 4.220868711478e-07 4.061730803547e-09 9.794700272181e-07 1.154343460858e-06 -7.501356642021e-08 1.823447448738e-07 -4.407714502867e-06 -3.606560661969e-06 -3.080481377189e-06 -1.202564666987e-06 -7.410446609926e-07 -3.298255084457e-07 6.995439164036e-06 5.221557262034e-06 5.204357014634e-06 3.498638724479e-06 5.275980458445e-06 2.584989409489e-06 3.071583205264e-06 1.516912004081e-06 6.575894333495e-06 5.786945137087e-06 7.014170030795e-06 1.689030355494e-06 2.784730013805e-06 2.846315473008e-06 -4.305296744000e-06 -3.547332685253e-06 -2.610629282899e-06 -1.891006166900e-06 -4.960004649668e-07 -1.901136283610e-06 1.186308861614e-06 4.752474724867e-07 2.410317126185e-06 -4.963593509050e-08 -7.346247296406e-07 6.128426096745e-06 6.724225354452e-06 4.684007674468e-06 4.167388055443e-06 9.030988482776e-06 8.429309955963e-06 1.024683479896e-05 2.066270261151e-06 1.660781374580e-06 8.297966043476e-07 6.052711424128e-07 3.823617281573e-06 5.257555709558e-07 1.040213764564e-06 4.203409970941e-06 7.461733690188e-07 2.152445104064e-06 -3.815503860679e-06 -2.756050264570e-06 -1.613269347186e-06 -1.290816525772e-06 2.596990678875e-06 3.244184799339e-06 -2.359476062727e-06 -1.227835873863e-06 2.506323498075e-06 3.210180856724e-06 -3.696624098382e-07 4.157352157937e-07 -1.666732255052e-06 -2.796667023948e-06 -2.353807924053e-06 -1.542377726649e-06 -6.228912961352e-07 1.912731076933e-06 1.879442524442e-06 5.337808575738e-06 4.411209960938e-06 8.558243977571e-07 4.369096529011e-08 1.644435248712e-08 1.123194252865e-06 7.234350539572e-07 3.472513787095e-06 4.223495160250e-06 -6.711255559585e-07 -6.644623417410e-08 -3.169136306664e-06 -3.681987599110e-06 3.288373705076e-06 3.919756364066e-06 -3.381203540692e-07 1.143387971239e-05 1.729574693909e-05 9.707491140176e-06 1.311118464239e-05 -6.384835767163e-07 4.605110115463e-08 1.883668595696e-06 5.313453669259e-06 1.090118954285e-06 4.036905681178e-06 7.798889008272e-06 8.260728951871e-06 8.854207380763e-06 1.094720786219e-05 7.468804784120e-06 -2.722273027839e-06 7.676863731376e-07 -6.524489489420e-06 -4.540304681407e-06 1.658925026475e-05 1.423063521017e-05 -2.553849072606e-06 -2.881842343427e-06 -2.410903464793e-06 -3.729001306818e-06 -4.258144022125e-06 -4.723172105943e-06 6.013723505838e-06 1.541654346989e-05 1.475345483744e-05 5.842389720105e-06 1.434314168465e-05 1.526598122485e-05 5.231529462857e-06 1.331837815262e-05 1.327754911995e-05 7.167647917997e-06 1.510313366911e-05 1.500202819956e-05 -3.904836554272e-06 -6.115783368325e-06 -5.701939382504e-06 -3.916572850531e-06 -5.222534748365e-06 -5.205498920210e-06 -9.486049664886e-07 -1.586687767100e-07 2.991929362040e-07 -2.243878685526e-06 -2.132050775853e-06 -2.346385973147e-06 6.397033615991e-06 1.549845901290e-05 1.471009471003e-05 7.044017733272e-06 1.498673261143e-05 1.512323053521e-05 -4.529422004173e-06 -5.000252864577e-06 -4.495747125762e-06 -4.327192191575e-06 -4.560973557647e-06 -4.966054861407e-06 2.227076508000e-06 1.059878313262e-05 1.034412259434e-05 6.505184525912e-06 1.453470838690e-05 1.520138298537e-05 -2.892406677664e-06 -3.121917220221e-06 -3.899922610258e-06 3.746629479443e-06 1.204019651306e-05 1.251303251319e-05 -3.259742475799e-06 -3.730297661653e-06 5.040280666338e-06 1.353876283868e-05 1.344439519172e-05 -3.256086222235e-07 6.232573180516e-08 3.100241986835e-07 4.983272795399e-07 -1.980859755401e-07 -4.305042436240e-07 6.130086639966e-07 2.091004620915e-06 3.622170582383e-06 1.116971200451e-05 1.100386174217e-05 1.283459843441e-06 1.333857699947e-06 2.455622720869e-06 6.903723797376e-07 2.476984257704e-07 1.366650617933e-06 8.315700768868e-07 3.528347472701e-06 1.172220704356e-05 1.075696642894e-05 -1.696618621187e-06 -1.546513852387e-06 -7.088387242800e-07 -6.377388089470e-07 -2.869895849608e-06 -2.588653586895e-06 -2.039767070154e-06 -2.223181128228e-06 -2.446189056723e-06 -1.895811664268e-06 -1.646530153369e-06 -2.301857008321e-06 8.321629585911e-07 1.181053523721e-07 -3.513103087327e-07 4.755737011111e-07 -4.665914779305e-06 -6.044595126209e-06 -6.339572849715e-06 4.949323252460e-06 1.269699361088e-05 1.154516111705e-05 7.020910907601e-06 1.538319150855e-05 1.479502493507e-05 -4.147639445390e-06 -4.437819835316e-06 -4.476413533430e-06 -1.815915951170e-06 5.294654448571e-06 3.568088330436e-06 -2.652281950351e-06 -1.099735957963e-06 3.747884969781e-07 2.600538004197e-07 -1.693417084336e-06 -1.125357807719e-06 -4.194675673623e-06 -5.462048789558e-06 -7.673055100188e-07 -6.695366922734e-07 -1.730291980066e-08 -5.729694605192e-07 6.446042441777e-06 1.440546876785e-05 -4.209125389442e-06 -5.391731015362e-06 8.762608250186e-06 1.647537757399e-05 6.175724714775e-06 1.437300903517e-05 1.353708751939e-05 3.648661392252e-06 4.098045217030e-06 -1.022612223049e-06 -1.190659006826e-06 -9.830248739955e-07 4.511905143938e-06 2.533762680631e-06 2.760146080435e-06 4.781624525996e-06 1.953135664415e-06 -4.013460060515e-06 -4.012495417223e-06 -4.290781079119e-06 -3.392868774318e-06 -4.123029260439e-06 -3.442312509675e-06 -3.289772903493e-06 -4.192067136592e-06 -4.153013245169e-06 -3.704202098723e-06 -3.524865959440e-06 -2.981767770556e-06 8.599986881014e-07 -1.505866086148e-07 4.754402627314e-07 2.211017259438e-06 6.747854511602e-07 1.534584085206e-06 7.363509317478e-07 1.990496105950e-06 3.047064423112e-06 -1.860324757907e-06 -9.767362959323e-07 -1.659880644917e-06 -2.351415121013e-06 -2.626933456935e-06 -2.863476896675e-06 -3.492778765998e-06 8.548498820815e-07 6.703285528621e-06 1.481473760045e-05 1.130563729449e-06 4.565062270827e-07 -2.677772493865e-07 1.719150817160e-06 5.637453625611e-07 1.751695466012e-07 1.247192986286e-06 -6.611811352247e-07 -9.733435963000e-07 -7.153230587617e-07 6.269129675631e-07 1.289800575440e-06 -8.201791390346e-07 -1.388660490786e-06 -7.468998867092e-07 -2.278882901348e-07 -1.570882640494e-06 -1.731706925886e-06 -2.017213372600e-06 -2.452345998805e-06 -1.891597179601e-06 -1.572170471044e-06 -1.189083275547e-06 -1.950330988746e-06 -9.448786743315e-07 -3.264337111730e-07 -1.874964528081e-07 -1.004250417480e-06 -4.208023837974e-06 -4.724505542638e-06 3.237717383087e-07 -9.796746133587e-07 1.372036441794e-06 2.001269911715e-06 2.691024070719e-06 7.921436861519e-07 -3.630965400014e-06 -3.064400774318e-06 -3.965333688937e-06 -3.473562512143e-06 -3.899189371677e-06 -3.300933425828e-06 -4.391942528662e-06 -4.312753957070e-06 6.926263867631e-08 -1.227258341951e-06 -8.256376538121e-07 1.590262317217e-06 1.042824661121e-06 -2.143895532383e-06 -2.527204091231e-06 -3.069858518227e-06 -2.460506236260e-06 4.916831490102e-07 1.647329771654e-06 4.787290332548e-07 -1.528627511941e-06 -1.370243326754e-06 -6.475548794466e-07 1.597015781840e-08 -1.240501078353e-06 -2.898498936162e-06 -1.623698344913e-06 -2.461674924437e-06 -3.533655765014e-06 -3.719116198712e-06 3.710360003289e-06 4.898881161040e-06 4.854102731359e-06 -1.198758324127e-06 -3.075412705241e-06 -3.379817233999e-06 -5.110446933809e-06 -6.539505567282e-06 7.682956728911e-06 1.584762919205e-05 -3.850524847119e-06 -4.671624933413e-06 9.542729074919e-06 1.749754939147e-05 -2.695619293817e-06 -1.524821521937e-06 -1.633696879444e-06 4.125563784691e-06 1.182046835428e-05 1.214943201570e-05 -4.339979482295e-06 -3.961472105966e-06 -3.731622342684e-06 -4.410820986792e-06 -4.480647321555e-06 -4.412467532984e-06 -2.867336252077e-06 -2.339355803234e-06 -2.826086122335e-06 -2.604321866251e-06 -2.437012923240e-06 -2.923354686620e-06 -1.904401784825e-06 -1.708563926398e-06 -1.626958723793e-07 4.919536919210e-07 1.714733471712e-07 -6.837302072293e-07 -1.042714266313e-06 -3.337821100007e-07 -2.370626529450e-06 -2.347876887280e-06 3.113688204225e-06 -2.098750913558e-06 -2.032184054738e-06 -1.125056834573e-06 -1.411233593773e-06 4.746120955998e-07 5.710472498816e-07 7.833327614485e-06 1.537164629058e-05 -9.993396879645e-07 -7.487969632989e-07 -1.196991240941e-07 -9.676024570101e-07 -1.540610366805e-06 -2.876696166708e-06 -5.678968328433e-07 6.712386457997e-06 4.629816467479e-06 3.676843017312e-06 3.048153194355e-06 5.180972070967e-06 1.737384514685e-06 -3.750519888089e-06 -2.509522267303e-06 -1.726586117279e-06 -1.584576802827e-06 -1.323527085279e-06 -1.189275689957e-06 -1.661329553334e-06 -1.644787261501e-06 -3.236609172008e-06 -2.593468640568e-06 -3.886100020544e-06 -3.736811018581e-06 -2.721465759118e-07 5.249849492905e-07 3.553822124449e-06 1.029580151286e-05 -3.623581162665e-06 8.927233250954e-06 1.567984206230e-05 8.441448958389e-06 1.529064371408e-05 -2.182800994917e-06 -1.549384731447e-06 -1.642205789221e-06 -2.424212053883e-06 2.168790427337e-06 3.545647860352e-06 2.895815223688e-06 -2.439021619733e-06 -2.428678962163e-06 -2.098676782157e-06 -1.557813019841e-06 1.574955960216e-07 -9.480082115987e-07 4.690624634377e-06 1.307058065803e-05 1.401164102225e-06 -3.936322544296e-07 -3.156337353787e-07 -1.084728479385e-06 -1.329997256370e-06 -7.622342893162e-07 -1.867721639452e-06 -1.710634338827e-06 -9.500051341149e-07 -1.858173677051e-06 3.103539631992e-06 4.025417696709e-06 1.534680101354e-06 2.491040939314e-06 1.597234914799e-06 5.155838638720e-07 -8.982052520028e-07 1.638208708155e-06 8.322104346684e-07 2.401246709915e-06 1.538347681655e-06 -7.749104853761e-07 -5.134211228756e-07 3.107627810343e-06 2.082255156780e-06 4.245187813377e-06 4.781882475571e-06 -3.777538414296e-07 1.675509411214e-07 -6.611085907456e-07 -1.131719221078e-06 8.453930246806e-06 5.180886786418e-06 -1.619455519020e-06 -1.861374865234e-06 -1.336674231004e-06 2.711970846943e-06 2.871752533669e-06 1.663028906029e-06 1.318500169075e-06 8.254697575534e-06 3.699800992537e-06 1.943537570170e-06 2.775803367079e-06 -4.798939542934e-06 -4.991637563290e-06 -4.358437119031e-06 6.385371871122e-06 3.451811422768e-06 1.082455619650e-05 8.640484753191e-06 -5.147132099850e-06 3.716101925338e-06 4.476696082701e-06 6.337889860782e-06 -4.113225412780e-06 -3.502182710091e-06 -3.146213674299e-06 8.274752669241e-06 6.174496843136e-06 5.568130658984e-06 -2.356923599104e-06 -2.977509910472e-06 -3.514081497537e-06 8.095683001160e-06 1.494821570599e-05 -5.137563448473e-06 -6.100554178919e-06 9.929985396237e-06 1.648278459148e-05 -3.909481856616e-06 -4.875434208055e-06 -3.837008220740e-06 -3.875311484454e-06 1.212026214059e-06 2.356959888705e-06 7.642172414163e-06 -4.447465953278e-06 -5.476890850990e-06 -2.840873978811e-06 -2.806267504152e-06 1.480595555344e-06 2.770117415476e-06 2.779286189118e-06 1.635643168858e-06 5.576896928458e-07 2.417038770719e-06 2.758148168694e-07 -1.538996956567e-06 -6.348688235273e-07 7.671267216688e-06 1.607616014206e-05 -4.190817689098e-06 -5.075537312018e-06 1.002851251548e-05 1.849226698480e-05 -6.337786312945e-07 4.456961804067e-07 -2.052430605026e-06 -1.706725969767e-06 5.617653694331e-06 2.585244419947e-06 4.235833823498e-06 4.142130930725e-06 2.208672750631e-06 -4.860484785561e-06 -2.750107241933e-08 -3.590623468478e-07 -3.551557815470e-06 -1.036938929537e-07 -3.334224294015e-06 3.857087117224e-06 2.616540555659e-06 4.186944868649e-06 3.082745956136e-06 3.845594822227e-06 -4.476942637140e-07 -2.250807335019e-06 -1.296500509211e-06 -3.557454446579e-07 -1.206281936830e-06 3.061053732183e-07 5.483004656272e-06 8.921092659462e-06 -3.114155552023e-06 8.071774449178e-06 -1.092454073900e-06 -2.125550616490e-06 -1.940605125822e-06 1.052042788831e-06 1.579714917226e-06 -4.077955483601e-06 1.628234596603e-06 -9.151046223694e-07 7.534670847571e-06 7.659092713534e-07 1.289372998027e-06 6.266615199498e-07 -2.811967862961e-06 -1.458557480312e-06 -1.197755086372e-06 -2.088205659945e-07 -1.552251999900e-07 2.145685174046e-06 2.674897281156e-06 -2.376290743792e-06 -3.064800583926e-06 6.685753397943e-07 -1.564500704226e-06 1.785535904480e-06 3.808012612366e-06 -5.587335879890e-07 9.300988604254e-06 1.541441353766e-05 5.431938653741e-06 3.829983370118e-06 4.042296510320e-06 4.530155596723e-07 1.358780525552e-06 6.779340373223e-07 -8.756658665901e-07 -1.095141713183e-06 -8.865508475490e-09 1.096206944033e-06 1.590768443613e-06 -7.701403232389e-07 -7.863764473666e-07 -9.718466587409e-07 -1.748671620035e-06 1.517277473699e-06 4.575670397725e-06 -2.582484861550e-06 6.234522100949e-06 -3.560940051717e-06 4.139284154547e-07 1.355398364174e-06 -8.121042756789e-07 -7.075943673366e-07 2.538894741081e-06 2.413729161610e-06 -3.948300106119e-07 3.280730130661e-06 4.797802746267e-06 1.135834142230e-05 -4.225416390794e-06 -3.851903839521e-06 -4.551052622492e-06 -4.757739056875e-06 8.336946251402e-06 -1.860377473443e-06 -1.384932580528e-06 -3.050865917409e-06 -1.957360664514e-06 -2.650682993593e-06 -1.499543598965e-06 -1.237210453020e-06 -1.968294163479e-06 -3.021841036717e-06 -2.859271749441e-06 -7.632854354986e-07 -1.690172487893e-08 5.085017353486e-07 -3.649949663428e-06 -3.981251045233e-06 -3.012548583370e-06 -2.780392402634e-06 7.183447023104e-06 -3.263070527602e-06 5.879580157524e-06 7.575266613694e-07 3.110067132480e-06 -2.154712254335e-06 2.001773119191e-06 -4.332872340918e-06 2.774944164970e-06 3.424453199637e-06 1.262510324803e-07 -2.167634209386e-06 -2.328414489365e-06 -6.966322348978e-07 5.358128581564e-07 -2.591701853127e-06 -1.614908549293e-06 -1.112373428776e-06 4.648003936344e-06 1.913012665422e-06 3.943123603989e-06 -4.886686441176e-06 -2.079094967300e-07 1.274289817616e-06 2.632379042793e-06 -2.201183944746e-06 1.056203754679e-06 2.507310691927e-06 4.096278571127e-06 -4.661111627816e-06 -3.813234066779e-06 2.244315127076e-07 1.811810846301e-06 2.825668260049e-06 6.912757430054e-06 -1.215479367625e-06 -3.915586061935e-06 9.448191203730e-07 -4.317455221386e-06 -4.455300488143e-06 3.677621379707e-06 -2.170518637416e-06 -1.359841203611e-06 2.883316105518e-06 1.060061681628e-06 9.949242646042e-07 -3.833431524880e-06 -1.611587790862e-06 -3.176113062669e-06 -2.239508264538e-06 -2.153349717994e-06 2.087363512970e-06 -1.106369442645e-06 -1.015812756281e-06 -1.542045259425e-06 1.436868094803e-06 6.411999055778e-06 4.806673800732e-06 -5.217004585075e-07 -1.515952806019e-06 -5.897592958519e-07 -3.018502225061e-07 -5.416828673215e-06 -4.294909056426e-06 -4.805750056569e-06 -3.991531163495e-06 -4.270523597675e-06 -5.616262665005e-06 -4.479644882396e-06 -4.691996376859e-06 -6.010582242969e-06 -4.887958642328e-06 -4.616705713180e-06 -4.717040082141e-06 -4.246041909628e-06 -4.263990447000e-06 -5.173398863671e-06 -4.460164890271e-06 -4.353481000078e-06 -5.471963592315e-06 -4.603434361483e-06 -4.153622025734e-06 -4.868078353192e-06 -4.008477282961e-06 -4.295736395512e-06 -4.804600317339e-06 -4.446090577086e-06 -4.126363834746e-06 -4.660738284744e-06 -4.068197588087e-06 -4.181172439203e-06 -5.022466498631e-06 -4.425503361154e-06 -4.614130860824e-06 -3.876991395942e-06 -3.566806150065e-06 -3.356140523418e-06 -2.988682108092e-07 -9.606712007868e-07 -1.183509882491e-06 -6.060777289877e-06 -4.950554594096e-06 -4.972297328661e-06 -2.804205359665e-06 -3.092454719115e-06 -2.702716344986e-06 -1.657010088666e-06 -1.857274645412e-06 -2.077412277905e-06 -1.011941126183e-06 -1.431085044172e-06 -1.120322355182e-06 -3.650730451647e-06 -3.123723423926e-06 -3.484483490042e-06 -5.019332258568e-06 -4.558453138070e-06 -4.599005047901e-06 -4.692950709699e-06 -4.399387220744e-06 -4.078957819065e-06 -1.893295448609e-06 -2.198946192689e-06 -1.748399981238e-06 -5.587941752834e-07 -1.307353302406e-06 -1.546777940065e-06 -2.434506995651e-06 -2.262509780711e-06 -2.542173410373e-06 -5.822890685082e-06 -4.593022472873e-06 -4.726336776444e-06 -6.165799325873e-06 -4.262034348927e-06 -3.877387543137e-06 -4.656846165747e-06 -4.347778654188e-06 -2.806445015702e-06 -2.707023421126e-06 -4.968366174749e-06 -4.444699742390e-06 -5.360117863463e-06 -5.008970991109e-06 -6.121116843098e-06 -4.182586938890e-06 -3.546953154040e-06 -5.180659431102e-06 -4.740888900060e-06 -1.078433049935e-06 -5.308130475079e-06 -3.778624708684e-07 -3.602473969080e-07 -1.373591879625e-06 -2.062149116296e-06 -5.669077443137e-06 -2.403117745242e-06 -4.848089413880e-06 -5.369822460910e-06 -4.799073288221e-06 -4.427870000681e-06 -4.953300918024e-06 -3.203836251236e-06 -3.574872034815e-06 -3.801051056746e-06 -3.778310557371e-06 -3.212519452530e-06 -3.212816107527e-06 -4.222013001505e-06 -3.381020468213e-06 -3.389300987089e-06 -4.215861139967e-06 -3.468877735724e-06 -3.421663954198e-06 -4.041608707669e-06 -3.144189398988e-06 -3.239322085650e-06 -4.147066317906e-06 -3.308386852115e-06 -3.654812741523e-06 -3.248875563481e-06 -3.000835783122e-06 -4.221076027304e-06 -3.669913220021e-06 -3.483157417655e-06 -2.044962083758e-06 -1.969629029837e-06 -1.765285393672e-06 -3.805736679752e-06 -3.256235045638e-06 -3.337022049354e-06 -4.099033459829e-06 -3.264850153364e-06 -3.312047990200e-06 -4.050981364652e-06 -3.468782120875e-06 -3.579307621207e-06 -2.341819838603e-06 -1.968562790037e-06 -2.166661383936e-06 -2.513373197743e-06 -2.435045470471e-06 -2.170106166025e-06 -1.438112960687e-06 -1.437956672660e-06 -1.376310181230e-06 -2.952573288676e-06 -2.725306483923e-06 -2.537469796208e-06 -1.634519797911e-06 -1.510042181296e-06 -1.669884027322e-06 -4.315899696516e-06 -3.887409639850e-06 -3.859418908547e-06 -3.463057040119e-06 -2.862136950998e-06 -3.135178528420e-06 -2.897719099232e-06 -2.332547994902e-06 -2.787256943964e-06 -4.364611551821e-06 -3.785145181240e-06 -3.699118990674e-06 -4.367556407746e-06 -3.784486048356e-06 -3.762516558499e-06 -4.160404668922e-06 -3.540717831115e-06 -3.738142348532e-06 -1.780679201979e-06 -1.704497733031e-06 -1.634812328325e-06 -3.881571612377e-06 -3.194882265152e-06 -4.158683075461e-06 -3.469876595583e-06 -3.922360617340e-06 -3.301384582777e-06 -4.563360216222e-06 -4.167550583671e-06 -3.369161357014e-06 -4.132566317209e-06 -4.205017900224e-06 -3.800984027080e-06 -4.038126517318e-06 -3.286269291913e-06 -3.673301174296e-06 -2.725617582843e-06 -4.492406560752e-06 -4.231586194188e-06 -3.283626393803e-06 -1.672833581977e-06 -4.193649020312e-06 -2.115393374839e-06 -2.340839838608e-06 -1.658620733548e-06 -1.975148419782e-06 -4.308128765433e-06 -2.795731518932e-06 -3.972135093733e-06 -4.433846626961e-06 -3.765143737855e-06 -3.666547057228e-06 -4.408371897619e-06 -2.548372256599e-06 -3.007048244778e-06 -2.338996246465e-06 -2.305857470593e-06 -2.815549773697e-06 -2.269682273582e-06 -2.082010949089e-06 -2.898998179068e-06 -2.162276835903e-06 -2.219856025961e-06 -3.288397223326e-06 -2.589862070960e-06 -2.359186892435e-06 -2.759037478138e-06 -2.294395835545e-06 -2.271492429595e-06 -2.718524131399e-06 -2.034766176292e-06 -2.151484463278e-06 -3.172048946679e-06 -2.731511524079e-06 -2.505335186124e-06 -1.397866928333e-06 -1.364341484283e-06 -1.429703183916e-06 -3.106984711880e-06 -2.647292414208e-06 -2.584569961221e-06 -3.621476762879e-06 -2.950631471895e-06 -2.976728293882e-06 -3.632868117245e-06 -3.031470056432e-06 -3.025455346961e-06 -2.180590350312e-06 -1.938055146774e-06 -2.148297732053e-06 -2.971399309197e-06 -2.393202673812e-06 -2.536264030178e-06 -3.170848107192e-06 -2.411154325147e-06 -2.628678898060e-06 -2.701016377560e-06 -2.238266462198e-06 -2.162923668268e-06 -1.508303890267e-06 -1.365072919146e-06 -1.315508571064e-06 -1.949709096949e-06 -1.735900066604e-06 -1.625129801792e-06 -1.726405586548e-06 -1.340475071930e-06 -1.526605450053e-06 -2.168932578058e-06 -1.891426474209e-06 -1.906717889562e-06 -3.414414215216e-06 -2.954170178763e-06 -2.788162323933e-06 -3.443763723017e-06 -2.759136583652e-06 -2.844008150464e-06 -3.261424770917e-06 -2.531898767770e-06 -2.595403734336e-06 -2.895800675510e-06 -2.333357972528e-06 -2.497511449392e-06 -2.539336966725e-06 -2.418953587953e-06 -2.080645155167e-06 -1.454986543425e-06 -1.347601229051e-06 -1.820214336146e-06 -1.728629932825e-06 -3.286037801765e-06 -2.468485760021e-06 -3.209347426629e-06 -2.804889356556e-06 -2.974549455143e-06 -2.725895906429e-06 -3.023973806286e-06 -2.594128972416e-06 -2.730058974857e-06 -3.684725878994e-06 -3.323689238884e-06 -3.623586087779e-06 -3.544512491723e-06 -1.712438907919e-06 -1.734941210054e-06 -2.069099137617e-06 -3.196680796587e-06 -3.542998465633e-06 -3.072165734956e-06 -2.523708275285e-06 -2.259341441750e-06 -2.044733509436e-06 -1.460601308234e-06 -2.944869298749e-06 -3.535509032712e-06 -1.723629454251e-06 -1.532562793980e-06 -1.797639647686e-06 -1.347569113275e-06 -1.228420925327e-06 -1.911258597846e-06 -1.486597363382e-06 -1.434190237948e-06 -1.847624358644e-06 -1.143475889324e-06 -1.157803160456e-06 -1.651024678824e-06 -1.232817286922e-06 -1.050974635763e-06 -1.915394736981e-06 -1.320058248414e-06 -1.390348245978e-06 -2.127373647139e-06 -1.570924706170e-06 -1.816930545795e-06 -2.169056608214e-06 -1.765615240284e-06 -1.712002412161e-06 -2.164892499135e-06 -1.555616529888e-06 -1.463803250168e-06 -2.266923267265e-06 -1.733869381367e-06 -2.102502922467e-06 -2.614584546830e-06 -1.996155396780e-06 -1.944154072715e-06 -2.723008774426e-06 -2.182487728504e-06 -2.095969464013e-06 -2.284688789859e-06 -1.621550532249e-06 -1.509066221650e-06 -1.680866713993e-06 -1.405678879025e-06 -1.192005683069e-06 -1.132986950666e-06 -8.278180220324e-07 -6.907431097621e-07 -1.519136659282e-06 -1.092417926686e-06 -1.259597969187e-06 -1.289438776605e-06 -1.044372747927e-06 -8.801839395112e-07 -2.062959811570e-06 -1.489543689824e-06 -1.554442615848e-06 -2.667701224911e-06 -2.231136070304e-06 -2.136136956753e-06 -2.520336578302e-06 -1.904324716436e-06 -1.816397359522e-06 -1.527731052716e-06 -1.302567290523e-06 -1.110642036080e-06 -1.186526495485e-06 -7.879888962571e-07 -1.029130204278e-06 -1.840363112768e-06 -1.375153240672e-06 -1.504876732265e-06 -2.032676222008e-06 -1.454527935207e-06 -2.139696823315e-06 -2.311614971440e-06 -1.756135226239e-06 -1.966206765551e-06 -1.514504780920e-06 -2.619857610705e-06 -2.066391250229e-06 -2.630937804159e-06 -1.877860345038e-06 -2.290638784637e-06 -1.524568992384e-06 -1.732007580061e-06 -1.653212213866e-06 -1.986436559761e-06 -2.260601743168e-06 -2.680654690875e-06 -1.213234242699e-06 -2.139379718738e-06 -1.596068000313e-06 -1.117043973986e-06 -1.421394406423e-06 -1.379970324885e-06 -2.595838237215e-06 -1.742612118871e-06 -1.995238454233e-06 -2.211110929314e-06 -2.139920804753e-06 -2.584145813926e-06 -2.463972189541e-06 -2.723524619657e-06 -1.962170562623e-06 -7.213217182815e-07 -6.658122114089e-07 -8.825061247997e-07 -6.753982731237e-07 -5.983864894452e-07 -1.147261362762e-06 -7.910275376203e-07 -7.641560918851e-07 -6.075044733193e-07 -5.186831891891e-07 -2.497848716606e-07 -8.223274414373e-07 -3.424439762867e-07 -4.908587751077e-07 -9.653513431962e-07 -5.225109383685e-07 -6.227576561595e-07 -1.210146693298e-06 -9.064543903135e-07 -1.071782619914e-06 -1.378569269369e-06 -1.113132401254e-06 -9.360976775952e-07 -1.597618266174e-06 -1.025960657763e-06 -1.041351341158e-06 -1.590040602665e-06 -1.002383161660e-06 -1.055132781258e-06 -1.917862209390e-06 -1.267270557455e-06 -1.278759083586e-06 -1.387188553026e-06 -9.451308942390e-07 -7.067838634356e-07 -8.186853544423e-07 -6.157461088045e-07 -6.325800376356e-07 -5.972651703212e-07 -4.998712876711e-07 -2.653149019495e-07 -1.242676800868e-06 -9.965139063558e-07 -8.957275385117e-07 -7.553005677563e-07 -2.826811502161e-07 -4.426872177351e-07 -8.583062559205e-07 -4.166722525826e-07 -4.703719791740e-07 -1.249232718455e-06 -8.669798837365e-07 -8.783027463346e-07 -1.880307971843e-06 -1.211204507430e-06 -1.193288268050e-06 -1.409824972937e-06 -1.079665303210e-06 -1.001022176002e-06 -1.130930920061e-06 -7.247992407243e-07 -9.936056381184e-07 -7.777618133235e-07 -3.141980225132e-07 -1.508771773887e-06 -1.128628546324e-06 -1.388974078679e-06 -9.707798404158e-07 -1.048885331996e-06 -6.555921843423e-07 -8.753119019600e-07 -6.824660758372e-07 -5.625517688346e-07 -3.157990415466e-07 -1.537640467434e-06 -1.222217480211e-06 -1.716756928024e-06 -1.047216698506e-06 -1.239356078564e-06 -8.925878908587e-07 -1.409652135292e-06 -9.665188786596e-07 -1.203872873785e-06 -7.641855934715e-07 -8.652648751569e-07 -7.400152400490e-07 -1.366343891412e-06 -1.857693512550e-06 -1.087098119042e-06 -1.730020824079e-06 -1.044792919933e-06 -1.381759313746e-06 -8.130374494764e-07 -1.043866781643e-06 -1.616066892455e-06 -1.518081188046e-06 -6.817928430220e-07 -1.229320719702e-06 -7.141050733850e-07 -1.400466105404e-06 -1.334368321526e-06 7.944649880187e-08 -3.106232211299e-07 -5.661642822218e-07 -1.843906555591e-07 -3.103066068914e-07 -5.205175589317e-07 -2.562766317185e-07 -1.397699581629e-07 -2.432507505053e-07 -7.387380238397e-08 -1.618601606449e-07 -3.361698287148e-07 6.551760948585e-09 9.044324980797e-08 -3.519069706748e-07 1.957277957487e-07 2.925951499360e-07 -9.213489553517e-07 -4.460997954740e-07 -5.727209903118e-07 -1.024407725832e-06 -6.171728937983e-07 -6.315615194276e-07 -1.054180809164e-06 -6.493978032355e-07 -8.070138008594e-07 -6.613773660587e-07 -3.959234432157e-07 -2.257183056126e-07 -8.604792270815e-07 -3.048340700233e-07 -2.279741893929e-07 -7.401745883466e-07 -4.173158171620e-07 -2.923198000400e-07 -2.724690693808e-07 -6.288219855932e-08 -2.765412185665e-08 -3.513363256127e-07 3.253847113971e-08 -1.043612285972e-07 -2.895167324398e-07 -9.435124494041e-08 3.135706305724e-08 -6.007683610439e-07 -3.527410349369e-07 -3.864446958978e-07 -4.470734428885e-07 -4.221931323064e-08 -2.032879744047e-07 -8.445679590870e-07 -6.477016701250e-07 -4.735008155935e-07 -9.442958447773e-07 -5.261199011268e-07 -6.434325368312e-07 -8.219728169963e-07 -4.098138096653e-07 -5.137643560952e-07 -9.902344643030e-08 4.786213518108e-08 1.675260114335e-07 -5.723254450363e-07 -3.601407196167e-07 -2.932047921493e-07 -3.030654030548e-07 -4.902992777915e-08 -2.982028414126e-07 -4.180420580813e-07 -9.309222723057e-08 -3.905265391809e-07 -1.638797366699e-07 -9.126082305041e-07 -6.855030548240e-07 1.430841645167e-08 -3.983550082391e-08 -7.485514734877e-07 -5.083635780852e-07 -6.368782111811e-07 -5.696255947818e-07 -3.395807282776e-07 -4.500381245442e-07 5.254421068616e-08 -1.747130495833e-07 -6.357142637982e-07 -6.451865611249e-07 -9.427085696758e-07 -7.716223434281e-07 -2.526106595507e-07 -1.982184868095e-07 -5.392369460215e-07 -1.029870403683e-06 -7.342483709557e-07 -6.712655821318e-07 -3.244195238968e-07 -9.472917972708e-07 -5.885102709849e-07 -5.472531971288e-07 -6.145401020409e-07 -1.741698848109e-07 -6.444515762816e-07 4.211394694950e-07 6.171171718330e-07 -5.765205424169e-08 6.858022021877e-08 1.486557208194e-08 2.533817955822e-07 1.370560266019e-07 2.333057510517e-07 3.205407034986e-07 4.755743411226e-07 7.517389621533e-07 -1.348617857882e-07 2.011917421552e-08 2.247605533788e-08 8.138843698462e-08 1.337816324979e-07 1.530296560793e-07 -3.306651337927e-08 2.406274452286e-07 6.498989938801e-08 -5.367793567659e-09 1.102019751503e-07 6.593207727926e-09 -2.020333647539e-07 -9.092814761876e-08 -3.036414363154e-07 -3.971932518690e-07 2.752580968096e-08 -1.451832420000e-07 -4.069566131489e-07 -9.330966954657e-08 -8.900425951808e-09 -2.988576878564e-07 -1.326563890588e-07 -2.134478050111e-07 -1.825282072746e-07 -8.417877136087e-08 9.801686399561e-08 -5.912372973427e-08 -5.581105947767e-11 -3.240668119039e-08 2.103870264669e-07 6.584384374027e-07 4.488233144399e-07 -2.149404603931e-07 1.836042910301e-08 1.228199409336e-07 -1.857630519779e-07 1.073037802316e-07 1.217146771519e-08 -3.123821801232e-07 -2.366509531618e-07 -1.241930180917e-08 -5.543924929870e-07 -5.099669035206e-07 -3.462360382696e-07 -3.251553155318e-07 -1.437675029988e-07 -9.557212386922e-08 1.781640882233e-07 5.493593680455e-07 1.749694996297e-07 -1.289304378322e-07 1.077413429214e-07 4.666710584633e-08 5.745339715461e-07 1.885188847102e-07 1.864855216422e-07 -2.566441026364e-07 -1.815289372524e-07 -4.685678013989e-07 -1.578243504034e-07 4.795499384258e-08 1.694143984210e-07 5.548712858495e-08 -1.689417309751e-08 -1.720085906513e-08 -2.526423344109e-07 2.690708927271e-08 3.492838969166e-07 4.225005710968e-07 -7.703771010004e-08 -8.103793088428e-08 2.361161645463e-07 -2.008001596702e-07 -1.489771535024e-07 -4.820203418878e-07 -1.806234465206e-07 -3.158202605362e-07 -1.493236415998e-08 3.290873795691e-09 3.776236331040e-07 -7.046744189646e-07 -3.629665832585e-07 2.400794568480e-07 -3.532697520588e-07 -1.539834929688e-07 -1.862070397725e-07 1.118490009648e-07 -1.862485638308e-07 -5.783799605918e-08 1.788873874956e-07 -7.483261003453e-09 1.677627768556e-07 1.801987443212e-07 2.417973778239e-07 4.016591091727e-07 3.253767569452e-07 2.642340596400e-07 1.143865432638e-07 1.128103013226e-07 1.456321242858e-07 6.301377617232e-08 -8.742847557031e-09 4.784166744246e-08 1.757835182895e-07 1.954759384729e-07 1.139459764321e-07 1.005667317253e-07 1.199354593417e-07 1.807723089738e-07 -9.584221733710e-08 1.789350222066e-07 4.355624942202e-08 -9.519684841900e-08 -5.120012043965e-09 -3.583376801212e-07 1.070386269249e-07 8.004867494786e-08 -4.704459088956e-08 1.509040820302e-07 1.265087536210e-07 5.408386856883e-08 3.561551377028e-07 4.550193761036e-07 1.774879911931e-07 2.904872509942e-07 2.180035936217e-07 4.969924155921e-07 9.722115327608e-08 -1.652729684961e-07 -6.685974751619e-08 2.149201363297e-07 2.405607415490e-07 2.676592500232e-07 5.893486872595e-08 -9.939022863984e-09 1.122405528520e-07 5.639206702342e-07 5.260003264803e-07 -1.304344464817e-07 -2.392071147828e-07 -4.612024088561e-08 -1.442023677948e-07 4.177484395444e-08 4.756879695083e-08 -7.510425145993e-09 -5.393999091829e-08 -1.109703485399e-07 2.088318201963e-07 -2.462730389989e-09 1.111917865189e-07 6.543012975868e-08 9.380795636578e-08 1.153888576540e-07 2.281969781779e-07 7.685602569178e-08 9.815602357577e-08 2.674622612275e-08 7.749671223263e-08 -7.980945504471e-08 5.578170530176e-07 -2.991736581137e-07 -9.279408944944e-09 3.830296346763e-08 -3.258147649158e-07 2.146662190474e-07 1.270158745588e-07 -7.017344686286e-08 -4.627062488716e-08 4.474842516286e-08 9.921940454423e-08 2.766900057516e-07 4.403150824197e-08 1.527906685025e-07 1.038703356131e-07 1.363016055023e-07 6.051732670542e-09 3.325218767003e-09 3.000292840246e-07 -7.887324842631e-09 -2.652236483029e-07 2.646702940269e-07 2.061773474615e-07 1.939051423427e-07 -1.621471125368e-07 7.208963047675e-08 5.164579460389e-09 -2.052515237983e-07 -1.939170937530e-07 3.904387533282e-07 -1.056282905587e-07 2.377750221572e-07 6.742495229441e-07 6.458129915946e-06 6.198652445614e-06 2.127042573001e-07 9.013402743751e-09 1.053672922409e-05 8.641518419713e-06 6.843989034265e-07 4.904071900813e-07 4.853641110189e-07 5.169748989944e-06 -5.805520771937e-09 2.818709963426e-07 1.924658892507e-07 3.667285679083e-08 5.881687276867e-06 5.355133256695e-06 4.896554845189e-07 4.609749864759e-06 5.920726973204e-06 5.870389874355e-06 9.005983804728e-06 7.846758663758e-07 9.458982725733e-06 4.816574707802e-07 1.365511112134e-06 8.943784083707e-07 9.723437634476e-06 6.131656162618e-06 4.881856584645e-06 7.393117720368e-06 9.787534327149e-06 4.759591085134e-06 3.657654207993e-06 4.393124986852e-06 4.188034328470e-06 9.756425427007e-06 8.584144685860e-06 7.220525622224e-06 1.891862733398e-06 2.820250660829e-06 2.718946552275e-06 1.854873908716e-06 1.979620493288e-06 3.116004539698e-06 2.231911400704e-06 2.736159031110e-06 4.133492600977e-06 3.034994388695e-06 3.387739486937e-06 3.925795782947e-06 3.443912221081e-06 4.319871427535e-06 3.617794982061e-06 3.727316165640e-06 8.517788725949e-06 8.700780534507e-06 1.741736528831e-07 3.017109198375e-07 2.303547933951e-07 7.677013042310e-07 8.691926880678e-07 2.042935262144e-06 1.225852388994e-06 1.504257369852e-06 1.308281129283e-06 1.236567238959e-06 1.769599605122e-07 7.225180133159e-06 9.101257559389e-06 2.629996646720e-06 2.772514986644e-06 7.646874743829e-06 5.572544512352e-07 1.144229528135e-05 9.823894921931e-06 9.454701193473e-06 6.111519688249e-06 7.774329960186e-06 7.836719760366e-06 1.652213330989e-06 1.728595366944e-06 8.937369805710e-07 1.462609165485e-06 2.175259681640e-06 1.386461119885e-06 2.127485645653e-06 2.385222296204e-06 4.606582526348e-06 4.021143081454e-06 3.903332553586e-06 3.994705564962e-06 3.156913980829e-06 4.404264520937e-06 4.124640023713e-06 5.148507703464e-06 3.127305923827e-06 2.680985724946e-06 3.092288179814e-06 1.927349698801e-06 6.369243161538e-06 4.852670028270e-06 5.885693401394e-06 1.621599209578e-06 2.165123797819e-06 2.763122623970e-06 2.818187593993e-06 1.692524514022e-07 8.268036528334e-06 6.032626272708e-06 6.059438726306e-06 7.637661470803e-06 6.142419595149e-06 4.990263882535e-06 4.559221489922e-06 5.513394570476e-06 5.441653725616e-06 2.829830469870e-06 2.623696883101e-06 3.395585059648e-06 1.959494803897e-06 1.293323068789e-06 1.384190755497e-06 6.034457550297e-07 4.343522499556e-07 2.770027134188e-06 2.120999830517e-06 3.259330974596e-06 2.825508133242e-06 2.042502897358e-06 2.264695958501e-06 1.996643498055e-06 2.653960614903e-06 9.229823389080e-07 1.264908738266e-06 3.014188963490e-06 2.591816272342e-06 1.224127669049e-06 6.582516475270e-07 1.416488709475e-06 1.187068167549e-06 4.007196860926e-06 5.332483320291e-06 4.245715218287e-06 4.055389408915e-06 3.002912848012e-06 4.186972844766e-06 4.101320172552e-06 2.555211322197e-06 1.968805010163e-06 2.533842161867e-06 1.771982483264e-06 2.768203232121e-06 5.244773688314e-06 4.072607709219e-06 3.971817280513e-06 1.454946208204e-06 1.265626536166e-06 5.365385302615e-06 6.234439979232e-06 7.229462459346e-06 1.312816627820e-05 9.308351006136e-07 7.516049407614e-07 1.115561036628e-05 1.985410494775e-06 3.168341331635e-06 2.941515107380e-06 5.447668520731e-07 4.239310086874e-06 3.770053755514e-06 7.532275903528e-08 2.762121805563e-07 -1.398232358291e-07 8.281467820498e-08 6.004181283376e-08 9.556485019620e-08 5.913170437184e-06 7.187176897381e-06 5.540619865833e-06 1.679203918298e-06 2.454683774282e-06 2.079961884801e-06 2.261551167078e-06 1.183735566490e-06 3.852268331328e-06 4.398620542408e-06 4.723059401752e-06 2.653697958769e-06 2.422245564830e-06 3.644498263148e-06 4.165653654105e-06 4.705865995300e-06 2.958287136442e-06 2.304004626900e-06 4.141266582080e-07 8.690535735674e-07 5.765033004724e-07 4.857731403021e-06 5.574018196021e-06 3.878365255997e-06 4.670028163374e-06 4.890912605079e-06 3.454863598540e-07 4.288990387735e-07 -1.687871796192e-07 2.507344167846e-07 8.246772450112e-08 1.437898070734e-07 1.512233242806e-06 1.140614865711e-06 1.206432572598e-06 1.129693426716e-06 1.557023854108e-06 1.665825512050e-06 6.262885565415e-06 4.844561892758e-06 5.530686581403e-06 5.135441309337e-06 5.091372098883e-06 2.717664275349e-07 3.903082378039e-06 3.412669112536e-06 3.579656100395e-06 4.823728487659e-06 6.532790689147e-06 8.824082548653e-06 5.726630941894e-06 2.395463700733e-06 1.804360057722e-06 2.900033665604e-06 2.918121917908e-06 1.974034194988e-06 3.808102564866e-06 8.668511236203e-06 1.045638546097e-05 7.419522405540e-06 5.784333548185e-06 4.073033839338e-07 2.133071679782e-08 5.624288896410e-07 8.556812775969e-07 6.876612334220e-07 1.001125433030e-05 8.141711814365e-07 1.295712187491e-06 4.197952601093e-07 7.170341409090e-07 5.203681194938e-07 6.564279842923e-07 1.347893378874e-06 5.699337000291e-07 3.402854716524e-07 1.755159732886e-06 2.123784158462e-06 1.309980653101e-06 -2.090822524990e-08 3.914518575954e-08 7.250971490001e-06 7.924061353237e-06 2.659522042468e-06 3.264426833257e-06 4.045597563396e-06 3.649486229603e-06 2.728117607608e-06 2.390532275805e-06 4.368617879003e-06 5.590041935947e-06 4.317527970187e-06 6.687630372563e-06 6.310691017071e-06 1.074622993852e-05 9.580708416673e-06 7.371508303973e-06 6.659093490846e-06 6.175505928259e-06 3.450870805185e-06 2.736424281983e-06 5.184682567894e-06 6.359539881225e-06 1.975240817516e-06 9.229396767828e-08 -4.221120590842e-08 3.276995128094e-07 1.499487644086e-07 1.027818642256e-05 8.488639051864e-06 1.060478056838e-05 9.205028265443e-06 8.421198655986e-06 5.605465776585e-06 6.380804004946e-06 4.575347907600e-06 4.189630690422e-06 3.025324010600e-06 1.143157593228e-06 3.321591933143e-07 3.221373143791e-07 1.721292409644e-07 1.799663408934e-06 3.193466150297e-06 1.610445873279e-06 3.369621321229e-06 2.491628712746e-06 6.389082703751e-06 1.179745545160e-07 -1.292221003064e-07 1.474752479477e-07 9.595210908444e-06 1.989073056697e-06 8.640681593687e-07 1.395568259715e-06 1.181227329366e-05 9.371992957450e-06 9.969615640667e-06 8.757754971593e-07 1.778385291135e-06 9.015418971359e-07 8.971466434341e-07 1.155402720215e-06 7.823547969959e-07 5.801631180210e-07 1.105069414784e-05 9.519207866905e-06 1.268089810184e-05 7.151526036845e-07 2.330431039255e-07 4.702234691993e-07 3.858850283015e-07 6.772653261914e-07 5.821785003380e-07 4.019915788604e-07 6.508614966982e-06 6.692641147262e-06 7.842264131814e-06 5.472026845446e-06 1.027235010140e-06 5.033081957073e-06 6.058089172534e-06 1.633736827106e-06 1.227655272492e-06 4.449216329771e-07 7.316870155813e-06 9.432603146301e-06 1.182749629791e-06 1.200577092764e-06 1.091592131601e-05 1.272745052503e-06 5.817231362047e-07 1.052276498545e-05 1.235099072178e-05 9.284206031162e-06 2.494140949574e-06 2.022482605859e-06 9.852708596251e-06 4.020085594093e-06 7.454918138657e-06 3.729270614983e-07 3.295632357384e-07 3.350738171963e-07 6.545801464650e-07 5.155428265476e-06 8.640165541871e-06 1.423960075186e-06 4.354030557097e-06 6.129871263070e-06 6.452899458860e-06 7.850406566919e-06 3.730875422071e-06 3.217069867130e-06 2.613612876464e-06 1.078026521483e-06 1.088463729906e-05 6.489689349050e-06 3.108864949179e-07 3.000289033090e-09 2.058473866424e-07 1.862471726029e-06 -8.951062594012e-08 -8.286630640934e-10 2.167934102713e-07 5.027758192799e-06 1.563243791114e-07 3.915466006405e-06 3.927638503084e-06 -1.085994004988e-07 6.555441765026e-06 1.115089739877e-05 7.581273416538e-06 7.177620301767e-06 6.762920356634e-06 1.002961495393e-05 3.764731958955e-06 1.814310167510e-06 1.185141361493e-06 2.074454572935e-07 3.921199657370e-06 5.497470980492e-06 7.038625445451e-08 3.669785988573e-07 4.230096959823e-07 4.041332363277e-06 3.243524316819e-06 3.233853602351e-07 1.763932164143e-06 4.133048817362e-06 3.586821400654e-06 3.506446448030e-06 7.636742916727e-06 5.899863907805e-06 1.071656369791e-05 1.233146374727e-06 7.659954099459e-06 5.940063128978e-06 4.990391565532e-06 4.330778472431e-06 4.361356330011e-07 3.144670168057e-06 2.667282236610e-06 4.968009851897e-07 1.179468662627e-06 1.095552770238e-06 1.693718573452e-06 4.971647466157e-06 1.790852933947e-06 1.796150850016e-06 9.857627456052e-06 2.553915489206e-06 6.032384235392e-07 5.492170134999e-06 8.820543987357e-07 2.939990157428e-06 3.593560419605e-07 3.177497676828e-06 1.930134017133e-06 9.542804865722e-07 9.355755311210e-07 7.116740913866e-06 8.936059570234e-06 7.750689680878e-06 7.525543745908e-06 1.858087682531e-06 1.802426313180e-06 8.057242929146e-07 2.500051474878e-06 2.317353581027e-06 1.308743446290e-06 9.267377166736e-06 1.962729251619e-06 1.080873680830e-05 6.181521742378e-06 1.740045713442e-06 2.481992044186e-06 5.007152866512e-06 3.541124360209e-06 3.344231686707e-06 7.475024282518e-07 1.206502783864e-06 1.734658660342e-06 6.270574709847e-07 2.887505091328e-06 3.554758191138e-06 6.207934844447e-06 7.362666707126e-06 4.926053386119e-06 3.621891087787e-07 7.794719564469e-06 2.290285081215e-06 6.393276360169e-06 7.095959585627e-06 7.517170015855e-06 7.648169998886e-06 5.613516405621e-07 5.773034576146e-07 5.281073689393e-06 3.579284184342e-06 6.700854798443e-08 3.134819297361e-06 1.174988110068e-06 8.121380508726e-06 1.196012273564e-05 1.210097413900e-05 3.418867147535e-07 7.884651355520e-08 3.399600832665e-06 3.749469799727e-06 1.798733871953e-06 2.521221761735e-07 4.534730533216e-06 6.468688139153e-06 1.863223068404e-06 3.698027638438e-06 6.176823785727e-06 1.609466023345e-06 1.867836562871e-06 3.627421961028e-07 5.164371527089e-06 2.232535158105e-06 2.857100452758e-06 3.628611105465e-06 4.974498780699e-06 1.127571194675e-05 8.569349264113e-06 1.954615238198e-06 1.619849879881e-06 7.315000802717e-06 3.182584220501e-06 9.031786826009e-07 -8.288969491451e-07 2.159014974018e-06 2.472544925469e-06 9.234227653643e-07 -1.892488410229e-07 2.242340149584e-07 6.728979835330e-07 -6.344358531016e-07 1.907162150049e-06 -1.837997370968e-08 1.542952586890e-06 -5.817274190504e-07 -1.591678758565e-06 -2.739841482806e-06 -1.143705268202e-07 8.135056450266e-07 8.601356242981e-07 2.638758181611e-06 -1.044391561357e-06 -3.261305557534e-07 1.733671573480e-07 -2.087312101293e-06 -2.892500468913e-06 1.155575402717e-06 3.363602811368e-06 -1.293828979361e-06 1.560642384171e-06 8.122697974809e-07 3.099534358734e-06 6.409418698746e-07 1.325340057869e-06 -7.950162485966e-07 1.473339388014e-07 5.754631815587e-07 1.472002475336e-07 -2.541360217122e-06 4.879954520161e-06 2.460363494877e-06 4.388390245386e-06 7.631734799468e-07 2.676809137641e-06 3.584619185602e-07 4.906489283951e-06 -4.830549817333e-07 1.496478040301e-06 2.705176020972e-06 9.465309807148e-07 1.559961898071e-06 9.645793381067e-08 1.220257853702e-06 2.629883612807e-06 2.860062203157e-06 -1.274023636989e-06 -2.159611881496e-06 2.980677736210e-06 4.177989642466e-08 2.776061522415e-06 2.510280130823e-06 -1.086954577006e-06 -2.812085685934e-06 1.563648530463e-08 2.235882428397e-07 -1.766244729763e-06 -2.957238394708e-06 2.412534840334e-06 2.802986847552e-06 2.195004363057e-07 1.651904583250e-06 1.148362909866e-06 1.307197063349e-06 6.256681939722e-06 7.184724815345e-07 -1.651199389171e-06 -8.456415154081e-07 -4.870745604913e-07 2.421412258399e-07 1.417277130487e-06 -1.596478627777e-06 3.312454147677e-06 1.538677077532e-06 8.866197298206e-07 5.283586203125e-06 -2.169734876829e-06 7.496017780421e-08 3.622572129032e-06 -9.365839451049e-07 -1.897692179531e-06 6.742327664548e-07 3.597819626248e-07 3.551397388020e-07 1.695142397697e-06 4.072632090159e-06 4.499671895143e-06 -1.123564212045e-06 5.115439362332e-06 7.846485361451e-08 -1.079245942028e-06 2.909428332362e-06 7.522072940503e-07 -1.892076570731e-06 1.891243895586e-06 -3.656946827949e-06 4.921643563757e-06 -5.037333923530e-08 -4.570238923738e-07 -5.081284445059e-08 1.197144517605e-06 -1.574477759894e-06 -1.194491483503e-07 2.556777270683e-06 -1.244163450529e-06 1.267353081011e-06 -1.459096377647e-06 6.155978357625e-07 -3.714526883898e-06 -2.862076869768e-06 2.951351449676e-06 7.183559086602e-07 -2.038676473131e-06 4.161743191618e-07 -2.205372570327e-06 -3.849194213368e-07 -9.888547100641e-07 4.860195490170e-06 5.455116896691e-07 -3.164411307944e-06 -5.408591120649e-07 1.515957781716e-06 4.702112912416e-06 -9.264627007492e-07 -1.991975178287e-06 -5.132953640105e-07 -2.190252431535e-06 1.200789390245e-06 5.221446095023e-07 1.722112529701e-06 1.192052982102e-06 1.462378624954e-06 2.889974649219e-06 -1.324995618634e-06 2.467361812378e-06 3.998580456085e-06 -6.056218912645e-07 4.980542208761e-06 -1.295962784565e-06 -2.226598250636e-06 1.370068435250e-06 -2.169158385599e-06 -6.774489271303e-07 -1.120442253403e-06 9.485688197882e-08 -5.724066803288e-07 -1.921504030613e-06 4.647144512288e-06 1.310179215331e-07 2.744839193138e-07 -8.639172434377e-07 -8.137788738700e-07 1.471796165215e-06 -2.182294955608e-07 -1.490276121957e-06 8.285797466972e-07 -1.221225367550e-06 -3.154002016249e-06 2.065040706279e-06 3.818189297408e-07 -3.279049741343e-06 3.648486623396e-06 2.121734036686e-07 -4.857189268032e-07 -2.223602881440e-06 -2.633477513409e-06 9.493045663240e-07 1.016021256955e-06 4.026791539508e-07 7.444711928404e-06 5.767068965816e-06 -2.081602197427e-06 -1.120743263823e-06 2.916009509535e-06 1.483712253956e-06 2.370260707754e-06 -5.905371534985e-07 6.183993862286e-06 3.070542765295e-06 -6.714203788293e-07 3.989881141367e-07 -1.171353101339e-06 -5.328542270220e-07 -6.953504965549e-07 3.313197374603e-07 -7.482169659096e-07 -1.667499426933e-07 4.125647111004e-06 1.646174248767e-07 5.894222676476e-06 -4.012957443748e-06 -2.161257531430e-06 -2.296736559690e-07 -4.085369208962e-06 -8.031217105392e-07 4.294385490750e-07 -3.346841715185e-06 1.346816069289e-06 2.329751948932e-06 9.192820969353e-07 -2.569280059488e-07 -1.422154482341e-06 3.003913443766e-06 8.890280249819e-07 3.440496535114e-06 -2.645984398616e-06 -3.885730791131e-06 4.171586711714e-06 1.146875618713e-06 -1.685245243558e-06 6.274516372236e-06 -3.718242693592e-06 -2.124156457284e-06 2.585171708563e-06 -1.770915817116e-06 1.929103433727e-06 2.578945398102e-06 -4.923660278443e-07 -1.075961319850e-06 3.536931721835e-06 1.655946368168e-06 -1.655751892916e-06 -4.966173979086e-07 -1.250669659114e-06 1.666449114987e-06 -2.654283686480e-06 -3.125839120827e-06 2.883499973470e-06 -1.281459436679e-06 9.677292924235e-06 8.238949610625e-06 3.253131197186e-06 -1.342786251496e-06 -9.754974455844e-07 -1.772231726091e-06 -3.999635765667e-06 3.940163146090e-07 1.691247060309e-06 1.044501615192e-06 -1.112033249905e-06 -3.405149087556e-06 2.526713988789e-06 -5.875103103843e-07 6.070628012914e-07 
        </DataArray>
        <DataArray type="Float64" Name="STRESS_ZZ" format="ascii">
          -1.708000244945e+01 -1.708000408011e+01 -1.708000397087e+01 -1.707999746785e+01 -1.707999660906e+01 -1.707999708257e+01 -1.707999812385e+01 -1.707999779092e+01 -1.707999712775e+01 -1.708000319966e+01 -1.708000307812e+01 -1.708000172471e+01 -1.708000026979e+01 -1.707999927526e+01 -1.707999950926e+01 -1.707999735026e+01 -1.707999778294e+01 -1.707999806755e+01 -1.707999830523e+01 -1.707999784494e+01 -1.707999876569e+01 -1.707999861311e+01 -1.707999918801e+01 -1.707999758897e+01 -1.707999730483e+01 -1.707999716586e+01 -1.707999892803e+01 -1.707999833304e+01 -1.707999858923e+01 -1.708000335311e+01 -1.708000240359e+01 -1.708000173662e+01 -1.708000105639e+01 -1.707999996343e+01 -1.708000079665e+01 -1.707999740169e+01 -1.707999737391e+01 -1.707999717247e+01 -1.707999989044e+01 -1.708000043612e+01 -1.707999695343e+01 -1.707999654426e+01 -1.707999752218e+01 -1.707999768117e+01 -1.707999656317e+01 -1.707999668734e+01 -1.707999568911e+01 -1.707999902405e+01 -1.707999920920e+01 -1.707999942522e+01 -1.707999952050e+01 -1.707999839888e+01 -1.707999984834e+01 -1.707999955632e+01 -1.707999802399e+01 -1.707999732892e+01 -1.707999771083e+01 -1.708000230985e+01 -1.708000156257e+01 -1.708000097760e+01 -1.708000080769e+01 -1.707999799749e+01 -1.707999749126e+01 -1.708000155727e+01 -1.708000143779e+01 -1.707999751284e+01 -1.707999826752e+01 -1.707999890993e+01 -1.707999869366e+01 -1.708000083304e+01 -1.708000234076e+01 -1.708000164476e+01 -1.708000078390e+01 -1.707999969017e+01 -1.707999908118e+01 -1.707999913799e+01 -1.707999752228e+01 -1.707999808701e+01 -1.707999982253e+01 -1.708000011336e+01 -1.707999938829e+01 -1.707999909458e+01 -1.707999940596e+01 -1.707999774295e+01 -1.707999770221e+01 -1.708000025443e+01 -1.707999999640e+01 -1.708000204409e+01 -1.708000300046e+01 -1.707999849934e+01 -1.707999774411e+01 -1.708000046885e+01 -1.707999439486e+01 -1.707999035406e+01 -1.707999478102e+01 -1.707999418393e+01 -1.707999981723e+01 -1.707999958402e+01 -1.707999883415e+01 -1.707999779279e+01 -1.707999937477e+01 -1.707999837011e+01 -1.707999717692e+01 -1.707999589225e+01 -1.707999605009e+01 -1.707999528109e+01 -1.707999644728e+01 -1.708000192006e+01 -1.707999932298e+01 -1.708000361011e+01 -1.708000383144e+01 -1.708000389620e+01 -1.707999904070e+01 -1.707999931359e+01 -1.708000018358e+01 -1.708000022036e+01 -1.707999981602e+01 -1.707999936833e+01 -1.708000363211e+01 -1.708000329697e+01 -1.708000286092e+01 -1.708000128840e+01 -1.708000072445e+01 -1.708000095244e+01 -1.707999962999e+01 -1.707999981239e+01 -1.707999995666e+01 -1.708000031219e+01 -1.708000014549e+01 -1.708000074359e+01 -1.708000054736e+01 -1.708000143749e+01 -1.707999997249e+01 -1.708000036050e+01 -1.707999995397e+01 -1.708000065268e+01 -1.708000052918e+01 -1.708000047990e+01 -1.708000360419e+01 -1.708000340107e+01 -1.708000335850e+01 -1.708000207962e+01 -1.708000142411e+01 -1.708000212921e+01 -1.708000017696e+01 -1.707999901351e+01 -1.708000069015e+01 -1.708000141471e+01 -1.708000189978e+01 -1.707999924773e+01 -1.707999881817e+01 -1.707999978967e+01 -1.708000008366e+01 -1.707999902867e+01 -1.707999946407e+01 -1.707999873491e+01 -1.708000071213e+01 -1.708000071900e+01 -1.708000093149e+01 -1.708000087881e+01 -1.708000029718e+01 -1.708000141093e+01 -1.708000105078e+01 -1.708000036838e+01 -1.707999978848e+01 -1.708000039018e+01 -1.708000329791e+01 -1.708000293458e+01 -1.708000230375e+01 -1.708000245467e+01 -1.708000056714e+01 -1.708000072539e+01 -1.708000305280e+01 -1.708000276402e+01 -1.708000069430e+01 -1.708000107248e+01 -1.708000028778e+01 -1.708000046282e+01 -1.708000187324e+01 -1.708000285979e+01 -1.708000240749e+01 -1.708000177410e+01 -1.708000131684e+01 -1.708000077911e+01 -1.708000091947e+01 -1.708000039029e+01 -1.708000091109e+01 -1.708000171107e+01 -1.708000217798e+01 -1.708000069016e+01 -1.708000063446e+01 -1.708000108964e+01 -1.708000052615e+01 -1.708000057659e+01 -1.708000200159e+01 -1.708000186142e+01 -1.708000281601e+01 -1.708000329326e+01 -1.708000042593e+01 -1.708000093688e+01 -1.708000223313e+01 -1.707999725604e+01 -1.707999386100e+01 -1.707999727222e+01 -1.707999722801e+01 -1.708000119923e+01 -1.708000112393e+01 -1.708000052442e+01 -1.708000022478e+01 -1.708000133064e+01 -1.708000006906e+01 -1.707999964293e+01 -1.707999823901e+01 -1.707999860144e+01 -1.707999817138e+01 -1.707999926774e+01 -1.708000257882e+01 -1.708000076548e+01 -1.708000373992e+01 -1.708000376811e+01 -1.707999410983e+01 -1.707999146078e+01 -1.708000144348e+01 -1.708000192738e+01 -1.708000193449e+01 -1.708000101069e+01 -1.708000139636e+01 -1.708000145920e+01 -1.707999940416e+01 -1.707999489493e+01 -1.707999580039e+01 -1.707999437673e+01 -1.707998997098e+01 -1.707998993188e+01 -1.707999587318e+01 -1.707999179460e+01 -1.707999272659e+01 -1.707999519232e+01 -1.707999180202e+01 -1.707999086591e+01 -1.708000208275e+01 -1.708000353645e+01 -1.708000331920e+01 -1.708000056928e+01 -1.708000138474e+01 -1.708000064645e+01 -1.707999898093e+01 -1.707999851086e+01 -1.707999697732e+01 -1.707999915293e+01 -1.707999902148e+01 -1.707999945993e+01 -1.707999994056e+01 -1.707999564465e+01 -1.707999557633e+01 -1.707999760706e+01 -1.707999333290e+01 -1.707999420094e+01 -1.708000229201e+01 -1.708000291153e+01 -1.708000273922e+01 -1.708000000496e+01 -1.707999922324e+01 -1.708000003102e+01 -1.707999386144e+01 -1.707998969987e+01 -1.707998990496e+01 -1.707999563563e+01 -1.707999157530e+01 -1.707999157499e+01 -1.708000027147e+01 -1.708000054695e+01 -1.708000122198e+01 -1.707999531598e+01 -1.707999096810e+01 -1.707999139995e+01 -1.708000147754e+01 -1.708000165899e+01 -1.707999932196e+01 -1.707999517931e+01 -1.707999482171e+01 -1.707999966660e+01 -1.707999991941e+01 -1.708000023500e+01 -1.707999823109e+01 -1.707999861468e+01 -1.707999861294e+01 -1.707999908466e+01 -1.708000089530e+01 -1.707999705823e+01 -1.707999348251e+01 -1.707999308734e+01 -1.708000088178e+01 -1.708000112713e+01 -1.708000083064e+01 -1.708000087403e+01 -1.708000067159e+01 -1.708000119244e+01 -1.708000165101e+01 -1.707999537424e+01 -1.707999161003e+01 -1.707999160576e+01 -1.707999916714e+01 -1.707999888714e+01 -1.707999856044e+01 -1.707999872006e+01 -1.707999966480e+01 -1.707999948630e+01 -1.707999873143e+01 -1.707999895196e+01 -1.708000069871e+01 -1.708000024686e+01 -1.707999987835e+01 -1.708000002538e+01 -1.707999830632e+01 -1.707999838420e+01 -1.707999910981e+01 -1.707999896493e+01 -1.708000193352e+01 -1.708000281464e+01 -1.708000330710e+01 -1.707999517342e+01 -1.707999145561e+01 -1.707999230659e+01 -1.707999355930e+01 -1.707998982824e+01 -1.707998955551e+01 -1.707999983188e+01 -1.708000037371e+01 -1.707999956355e+01 -1.708000289336e+01 -1.707999933337e+01 -1.707999699035e+01 -1.708000092596e+01 -1.707999749866e+01 -1.707999545380e+01 -1.707999617688e+01 -1.707999812300e+01 -1.707999869677e+01 -1.708000124735e+01 -1.708000218046e+01 -1.708000035620e+01 -1.707999993799e+01 -1.708000038063e+01 -1.708000005525e+01 -1.707999547214e+01 -1.707999123362e+01 -1.708000253908e+01 -1.708000318434e+01 -1.707999543112e+01 -1.707999196530e+01 -1.707999884869e+01 -1.707999486810e+01 -1.707999562225e+01 -1.708000036135e+01 -1.707999984040e+01 -1.707999901650e+01 -1.707999897607e+01 -1.707999901371e+01 -1.708000041375e+01 -1.708000105334e+01 -1.708000085484e+01 -1.708000031779e+01 -1.708000074303e+01 -1.708000156335e+01 -1.708000134605e+01 -1.708000221759e+01 -1.708000046886e+01 -1.708000179214e+01 -1.708000130370e+01 -1.708000080560e+01 -1.708000034412e+01 -1.708000096238e+01 -1.708000055671e+01 -1.708000040800e+01 -1.707999995372e+01 -1.707999869552e+01 -1.707999953599e+01 -1.707999901553e+01 -1.707999885744e+01 -1.707999984725e+01 -1.707999984829e+01 -1.708000071270e+01 -1.708000025678e+01 -1.707999887308e+01 -1.708000093403e+01 -1.708000070067e+01 -1.708000053849e+01 -1.708000085310e+01 -1.707999942870e+01 -1.707999983001e+01 -1.708000064399e+01 -1.708000020122e+01 -1.707999370636e+01 -1.707998945140e+01 -1.707999720382e+01 -1.707999806349e+01 -1.707999805941e+01 -1.707999598462e+01 -1.707999707229e+01 -1.707999690214e+01 -1.707999555511e+01 -1.707999705364e+01 -1.707999783793e+01 -1.707999671588e+01 -1.707999652562e+01 -1.707999522485e+01 -1.707999848718e+01 -1.707999822271e+01 -1.707999914301e+01 -1.707999889747e+01 -1.707999967822e+01 -1.707999945836e+01 -1.708000116274e+01 -1.708000129724e+01 -1.708000111047e+01 -1.708000114879e+01 -1.707999871857e+01 -1.707999919640e+01 -1.707999839608e+01 -1.708000114348e+01 -1.708000097304e+01 -1.708000100332e+01 -1.708000027676e+01 -1.708000025565e+01 -1.708000076906e+01 -1.708000101376e+01 -1.707999740618e+01 -1.707999722578e+01 -1.707999643449e+01 -1.707999776083e+01 -1.708000155006e+01 -1.708000098902e+01 -1.708000175511e+01 -1.708000159913e+01 -1.708000099611e+01 -1.708000034475e+01 -1.708000164836e+01 -1.708000169030e+01 -1.707999605962e+01 -1.707999755095e+01 -1.707999699832e+01 -1.707999451682e+01 -1.707999513065e+01 -1.707999921342e+01 -1.707999952774e+01 -1.707999978881e+01 -1.707999961895e+01 -1.707999790327e+01 -1.707999760631e+01 -1.707999831803e+01 -1.708000101435e+01 -1.708000074028e+01 -1.708000070587e+01 -1.707999978942e+01 -1.708000035009e+01 -1.708000062464e+01 -1.707999995080e+01 -1.708000024033e+01 -1.708000148905e+01 -1.708000090561e+01 -1.707999593213e+01 -1.707999572627e+01 -1.707999488378e+01 -1.707999938955e+01 -1.707999993872e+01 -1.708000004475e+01 -1.708000280607e+01 -1.708000375583e+01 -1.707999428036e+01 -1.707999153054e+01 -1.708000359040e+01 -1.708000371302e+01 -1.707999716949e+01 -1.707999330604e+01 -1.707999997028e+01 -1.707999816331e+01 -1.707999779079e+01 -1.707999399854e+01 -1.707998988733e+01 -1.707999029382e+01 -1.708000234382e+01 -1.708000254432e+01 -1.708000223555e+01 -1.708000099320e+01 -1.708000035987e+01 -1.708000116516e+01 -1.707999968580e+01 -1.707999940050e+01 -1.708000066883e+01 -1.708000017413e+01 -1.708000002548e+01 -1.708000037560e+01 -1.707999953648e+01 -1.707999935712e+01 -1.707999934730e+01 -1.708000181771e+01 -1.707999892146e+01 -1.707999898656e+01 -1.707999978959e+01 -1.707999991576e+01 -1.708000143575e+01 -1.708000087679e+01 -1.708000058941e+01 -1.708000146915e+01 -1.708000113779e+01 -1.707999657196e+01 -1.707999756224e+01 -1.708000122920e+01 -1.708000088420e+01 -1.707999921015e+01 -1.707999577493e+01 -1.707999907647e+01 -1.707999960633e+01 -1.707999949071e+01 -1.707999912254e+01 -1.708000254272e+01 -1.708000325027e+01 -1.708000221087e+01 -1.707999848150e+01 -1.707999933479e+01 -1.708000001144e+01 -1.707999743632e+01 -1.707999632714e+01 -1.707999841028e+01 -1.708000176576e+01 -1.708000061412e+01 -1.708000070470e+01 -1.708000044972e+01 -1.707999988400e+01 -1.708000053439e+01 -1.707999831741e+01 -1.707999948229e+01 -1.707999967247e+01 -1.707999965099e+01 -1.707999996815e+01 -1.708000009360e+01 -1.708000055051e+01 -1.708000020209e+01 -1.707999455240e+01 -1.707999116633e+01 -1.708000092052e+01 -1.707999746296e+01 -1.707999452052e+01 -1.707999620930e+01 -1.707999261173e+01 -1.707999976311e+01 -1.707999935301e+01 -1.707999932085e+01 -1.707999988315e+01 -1.707999697103e+01 -1.707999646007e+01 -1.707999628755e+01 -1.707999962460e+01 -1.708000002088e+01 -1.707999873712e+01 -1.707999821139e+01 -1.708000053059e+01 -1.708000120643e+01 -1.707999766835e+01 -1.707999392374e+01 -1.707999940851e+01 -1.707999862187e+01 -1.707999845638e+01 -1.707999896060e+01 -1.707999928197e+01 -1.707999931509e+01 -1.707999984673e+01 -1.707999815679e+01 -1.707999751256e+01 -1.707999863411e+01 -1.708000008040e+01 -1.707999929618e+01 -1.708000091000e+01 -1.707999750706e+01 -1.707999790713e+01 -1.707999842316e+01 -1.707999965748e+01 -1.707999781367e+01 -1.707999836073e+01 -1.707999805392e+01 -1.707999848064e+01 -1.707999917992e+01 -1.707999934513e+01 -1.707999713638e+01 -1.707999719336e+01 -1.707999595171e+01 -1.707999701303e+01 -1.707999892085e+01 -1.707999922632e+01 -1.707999914283e+01 -1.707999909292e+01 -1.707999803738e+01 -1.707999933422e+01 -1.707999903341e+01 -1.707999912851e+01 -1.707999906238e+01 -1.707999651229e+01 -1.707999627969e+01 -1.707999698200e+01 -1.707999739521e+01 -1.707999403997e+01 -1.708000013035e+01 -1.708000022940e+01 -1.707999973453e+01 -1.708000233689e+01 -1.708000257641e+01 -1.707999972678e+01 -1.707999497906e+01 -1.707999313029e+01 -1.707998911273e+01 -1.707999364782e+01 -1.708000259245e+01 -1.707999707102e+01 -1.707999654072e+01 -1.707999556577e+01 -1.708000128140e+01 -1.708000068162e+01 -1.708000091868e+01 -1.707999711327e+01 -1.707999738327e+01 -1.707999835745e+01 -1.708000243502e+01 -1.708000228372e+01 -1.708000280682e+01 -1.707999534750e+01 -1.707999157301e+01 -1.708000260767e+01 -1.708000271832e+01 -1.707999676491e+01 -1.707999325788e+01 -1.708000344505e+01 -1.708000352862e+01 -1.708000181339e+01 -1.708000177234e+01 -1.707999892923e+01 -1.707999795815e+01 -1.707999895099e+01 -1.708000103336e+01 -1.708000181859e+01 -1.708000000173e+01 -1.708000040310e+01 -1.707999802360e+01 -1.707999748923e+01 -1.707999749563e+01 -1.707999828069e+01 -1.707999771700e+01 -1.707999702609e+01 -1.707999812087e+01 -1.707999851084e+01 -1.707999888250e+01 -1.707999487436e+01 -1.707999137188e+01 -1.708000281630e+01 -1.708000304864e+01 -1.707999576306e+01 -1.707999161518e+01 -1.707999698009e+01 -1.707999641598e+01 -1.707999898243e+01 -1.707999859863e+01 -1.707999479024e+01 -1.707999746650e+01 -1.707999866557e+01 -1.707999816634e+01 -1.708000053103e+01 -1.708000172500e+01 -1.708000004852e+01 -1.707999946742e+01 -1.708000002123e+01 -1.707999603382e+01 -1.708000014991e+01 -1.707999559848e+01 -1.707999716040e+01 -1.707999911057e+01 -1.707999873204e+01 -1.707999804138e+01 -1.707999921991e+01 -1.708000032988e+01 -1.707999996164e+01 -1.708000129906e+01 -1.708000196797e+01 -1.708000134418e+01 -1.707999593001e+01 -1.707999515174e+01 -1.708000047093e+01 -1.707999288590e+01 -1.708000028299e+01 -1.707999936788e+01 -1.707999902231e+01 -1.707999976198e+01 -1.707999950711e+01 -1.708000019093e+01 -1.707999661038e+01 -1.707999961179e+01 -1.707999863020e+01 -1.708000049567e+01 -1.707999815974e+01 -1.708000075978e+01 -1.708000023822e+01 -1.708000052525e+01 -1.708000036920e+01 -1.708000088773e+01 -1.708000135077e+01 -1.708000108246e+01 -1.708000061904e+01 -1.708000061734e+01 -1.708000026732e+01 -1.707999834988e+01 -1.707999999800e+01 -1.707999787491e+01 -1.708000014826e+01 -1.708000242018e+01 -1.707999839203e+01 -1.707999525443e+01 -1.707999694266e+01 -1.707999771493e+01 -1.707999690956e+01 -1.707999877974e+01 -1.707999906479e+01 -1.707999939535e+01 -1.707999880123e+01 -1.707999800935e+01 -1.707999944258e+01 -1.708000086871e+01 -1.708000050392e+01 -1.707999855570e+01 -1.707999968054e+01 -1.708000020514e+01 -1.707999901044e+01 -1.707999826621e+01 -1.707999642298e+01 -1.708000273933e+01 -1.707999839116e+01 -1.708000128129e+01 -1.708000074087e+01 -1.708000048705e+01 -1.707999872751e+01 -1.707999935018e+01 -1.707999933178e+01 -1.707999842416e+01 -1.707999785693e+01 -1.708000115497e+01 -1.707999302737e+01 -1.707998935298e+01 -1.708000214950e+01 -1.708000195158e+01 -1.708000171375e+01 -1.708000212148e+01 -1.707999888381e+01 -1.707999954748e+01 -1.707999924682e+01 -1.708000178398e+01 -1.708000163007e+01 -1.707999969469e+01 -1.708000074388e+01 -1.707999901954e+01 -1.708000035211e+01 -1.708000124181e+01 -1.708000114730e+01 -1.708000069210e+01 -1.708000051572e+01 -1.707999785056e+01 -1.708000089394e+01 -1.708000117459e+01 -1.708000096945e+01 -1.708000328654e+01 -1.707999846721e+01 -1.708000154745e+01 -1.707999581033e+01 -1.707999954720e+01 -1.707999848853e+01 -1.707999849227e+01 -1.708000110183e+01 -1.708000167272e+01 -1.707999710903e+01 -1.707999729015e+01 -1.707999785582e+01 -1.707999870359e+01 -1.707999983555e+01 -1.707999957858e+01 -1.708000154687e+01 -1.708000044762e+01 -1.708000182127e+01 -1.707999995058e+01 -1.708000026803e+01 -1.707999983443e+01 -1.707999928765e+01 -1.708000162504e+01 -1.707999894320e+01 -1.707999816551e+01 -1.708000047842e+01 -1.707999951210e+01 -1.707999790981e+01 -1.708000022889e+01 -1.707999259259e+01 -1.708000207096e+01 -1.708000007267e+01 -1.707999574542e+01 -1.707999793024e+01 -1.707999946617e+01 -1.707999801497e+01 -1.707999901998e+01 -1.708000182373e+01 -1.708000095175e+01 -1.708000264840e+01 -1.707999993517e+01 -1.707999366506e+01 -1.707999975701e+01 -1.708000113281e+01 -1.707999820725e+01 -1.708000123839e+01 -1.708000167587e+01 -1.708000095812e+01 -1.707999734520e+01 -1.708000003106e+01 -1.708000087660e+01 -1.707999991654e+01 -1.707999672804e+01 -1.707999724331e+01 -1.707999787185e+01 -1.708000083834e+01 -1.707999765285e+01 -1.707999309945e+01 -1.707999670388e+01 -1.708000024079e+01 -1.707999961571e+01 -1.708000198406e+01 -1.707999744297e+01 -1.708000348889e+01 -1.708000351675e+01 -1.708000171273e+01 -1.708000140450e+01 -1.708000161850e+01 -1.708000225031e+01 -1.708000177331e+01 -1.708000203276e+01 -1.708000329048e+01 -1.708000245998e+01 -1.708000271466e+01 -1.708000355186e+01 -1.708000321624e+01 -1.708000341834e+01 -1.708000310187e+01 -1.708000285718e+01 -1.708000305336e+01 -1.708000140245e+01 -1.708000128066e+01 -1.708000085229e+01 -1.708000051279e+01 -1.708000049024e+01 -1.708000026125e+01 -1.707999964845e+01 -1.707999982764e+01 -1.707999997753e+01 -1.708000034410e+01 -1.708000010760e+01 -1.708000050957e+01 -1.708000222312e+01 -1.708000157007e+01 -1.708000225006e+01 -1.708000188732e+01 -1.708000213539e+01 -1.708000205794e+01 -1.707999707991e+01 -1.707999784455e+01 -1.707999748182e+01 -1.708000326334e+01 -1.708000270259e+01 -1.708000231167e+01 -1.708000178277e+01 -1.708000196308e+01 -1.708000160170e+01 -1.707999808635e+01 -1.707999811020e+01 -1.707999869141e+01 -1.707999906030e+01 -1.707999975899e+01 -1.707999875720e+01 -1.708000076335e+01 -1.708000043197e+01 -1.708000088285e+01 -1.708000296587e+01 -1.708000263042e+01 -1.708000270880e+01 -1.708000264039e+01 -1.708000262439e+01 -1.708000261828e+01 -1.708000078262e+01 -1.708000116098e+01 -1.708000048346e+01 -1.707999660613e+01 -1.707999742668e+01 -1.707999756732e+01 -1.707999930618e+01 -1.707999909681e+01 -1.707999963529e+01 -1.708000329719e+01 -1.708000282913e+01 -1.708000378072e+01 -1.708000358185e+01 -1.708000209381e+01 -1.708000236145e+01 -1.708000087991e+01 -1.708000097571e+01 -1.707999989093e+01 -1.707999995623e+01 -1.708000050786e+01 -1.708000006107e+01 -1.708000192573e+01 -1.708000335826e+01 -1.708000283409e+01 -1.708000133420e+01 -1.708000196693e+01 -1.708000284966e+01 -1.707999984625e+01 -1.707999719415e+01 -1.708000103102e+01 -1.707999791946e+01 -1.707999653867e+01 -1.708000001617e+01 -1.707999871573e+01 -1.708000201739e+01 -1.708000155619e+01 -1.708000274106e+01 -1.708000313157e+01 -1.708000152782e+01 -1.708000241796e+01 -1.707999977150e+01 -1.708000042717e+01 -1.708000303853e+01 -1.708000259774e+01 -1.708000258513e+01 -1.708000231029e+01 -1.708000210323e+01 -1.708000168009e+01 -1.708000152963e+01 -1.708000131530e+01 -1.708000206862e+01 -1.708000187434e+01 -1.708000181271e+01 -1.708000239614e+01 -1.708000196133e+01 -1.708000194826e+01 -1.708000331111e+01 -1.708000271631e+01 -1.708000106061e+01 -1.708000105068e+01 -1.708000067456e+01 -1.708000199326e+01 -1.708000159234e+01 -1.708000181635e+01 -1.707999864287e+01 -1.707999925304e+01 -1.707999893091e+01 -1.708000066685e+01 -1.708000000201e+01 -1.708000047041e+01 -1.708000018146e+01 -1.708000012886e+01 -1.708000001935e+01 -1.708000011254e+01 -1.708000002617e+01 -1.708000005050e+01 -1.708000100377e+01 -1.708000013755e+01 -1.708000080398e+01 -1.707999957246e+01 -1.707999975947e+01 -1.707999947015e+01 -1.707999829799e+01 -1.707999877709e+01 -1.707999883711e+01 -1.708000027617e+01 -1.708000033686e+01 -1.707999999464e+01 -1.707999945514e+01 -1.707999936283e+01 -1.707999982329e+01 -1.708000165080e+01 -1.708000166687e+01 -1.708000125239e+01 -1.708000248118e+01 -1.708000243951e+01 -1.708000293165e+01 -1.708000168052e+01 -1.708000122650e+01 -1.708000192462e+01 -1.708000093781e+01 -1.708000097644e+01 -1.708000096782e+01 -1.708000255353e+01 -1.708000270434e+01 -1.708000218688e+01 -1.708000266238e+01 -1.708000279714e+01 -1.708000269378e+01 -1.707999821402e+01 -1.707999864244e+01 -1.707999881517e+01 -1.708000279315e+01 -1.708000240831e+01 -1.708000276224e+01 -1.708000286074e+01 -1.707999988071e+01 -1.707999986505e+01 -1.708000279515e+01 -1.708000088690e+01 -1.708000075305e+01 -1.708000229139e+01 -1.708000184295e+01 -1.708000134905e+01 -1.708000255627e+01 -1.708000062680e+01 -1.708000024288e+01 -1.708000130813e+01 -1.708000138264e+01 -1.708000049853e+01 -1.708000216950e+01 -1.707999882792e+01 -1.708000211158e+01 -1.708000018815e+01 -1.707999920655e+01 -1.707999818742e+01 -1.707999833094e+01 -1.708000276479e+01 -1.707999998110e+01 -1.708000300149e+01 -1.708000170454e+01 -1.707999988033e+01 -1.708000258054e+01 -1.708000354692e+01 -1.708000176926e+01 -1.708000162034e+01 -1.708000143563e+01 -1.708000145903e+01 -1.708000203153e+01 -1.708000159683e+01 -1.708000142710e+01 -1.708000173930e+01 -1.708000138833e+01 -1.708000137790e+01 -1.708000269176e+01 -1.708000241369e+01 -1.708000188669e+01 -1.708000102548e+01 -1.708000127620e+01 -1.708000093841e+01 -1.708000164934e+01 -1.708000129387e+01 -1.708000128707e+01 -1.708000027347e+01 -1.708000010674e+01 -1.707999992885e+01 -1.707999940835e+01 -1.707999965807e+01 -1.707999977310e+01 -1.708000003395e+01 -1.708000051773e+01 -1.708000016689e+01 -1.708000126533e+01 -1.708000159672e+01 -1.708000105461e+01 -1.708000243728e+01 -1.708000243223e+01 -1.708000198396e+01 -1.708000150616e+01 -1.708000135697e+01 -1.708000194732e+01 -1.708000125540e+01 -1.708000024818e+01 -1.708000106355e+01 -1.708000031481e+01 -1.707999993859e+01 -1.707999994223e+01 -1.708000056298e+01 -1.708000057461e+01 -1.708000041536e+01 -1.707999931105e+01 -1.707999989271e+01 -1.707999981420e+01 -1.707999950803e+01 -1.707999989433e+01 -1.707999986246e+01 -1.708000004780e+01 -1.707999956564e+01 -1.708000007427e+01 -1.707999986584e+01 -1.708000006112e+01 -1.707999997961e+01 -1.708000084389e+01 -1.708000087819e+01 -1.708000069255e+01 -1.708000318276e+01 -1.708000328826e+01 -1.708000293448e+01 -1.708000309741e+01 -1.708000294935e+01 -1.708000312426e+01 -1.708000270137e+01 -1.708000256731e+01 -1.707999980921e+01 -1.708000000773e+01 -1.708000024934e+01 -1.708000013334e+01 -1.707999944447e+01 -1.707999972920e+01 -1.708000045268e+01 -1.708000073201e+01 -1.708000058934e+01 -1.708000035056e+01 -1.708000179042e+01 -1.708000142303e+01 -1.708000215943e+01 -1.708000166738e+01 -1.708000158460e+01 -1.708000182126e+01 -1.708000079196e+01 -1.708000185679e+01 -1.708000065233e+01 -1.707999997569e+01 -1.708000109210e+01 -1.707999948078e+01 -1.707999970974e+01 -1.707999972879e+01 -1.708000321869e+01 -1.708000271730e+01 -1.708000093470e+01 -1.708000225873e+01 -1.707999991139e+01 -1.708000114162e+01 -1.707999971130e+01 -1.707999987336e+01 -1.708000298490e+01 -1.708000072779e+01 -1.708000156452e+01 -1.708000132409e+01 -1.708000118804e+01 -1.708000112828e+01 -1.708000104768e+01 -1.708000092258e+01 -1.708000114044e+01 -1.708000115406e+01 -1.708000091752e+01 -1.708000076038e+01 -1.708000103213e+01 -1.708000065172e+01 -1.708000065622e+01 -1.708000151211e+01 -1.708000101202e+01 -1.708000123939e+01 -1.708000045672e+01 -1.707999976278e+01 -1.708000002173e+01 -1.707999981819e+01 -1.707999969674e+01 -1.707999967611e+01 -1.707999997771e+01 -1.707999987563e+01 -1.707999980006e+01 -1.708000012969e+01 -1.708000000976e+01 -1.708000035928e+01 -1.708000082452e+01 -1.708000074913e+01 -1.708000094701e+01 -1.708000140337e+01 -1.708000132466e+01 -1.708000142483e+01 -1.708000294047e+01 -1.708000297479e+01 -1.708000261401e+01 -1.708000173735e+01 -1.708000226693e+01 -1.708000125494e+01 -1.708000011168e+01 -1.708000025829e+01 -1.708000031300e+01 -1.708000017376e+01 -1.708000063539e+01 -1.708000065403e+01 -1.707999979358e+01 -1.708000002445e+01 -1.707999980769e+01 -1.708000061028e+01 -1.708000049921e+01 -1.708000075083e+01 -1.708000215134e+01 -1.708000190431e+01 -1.708000232106e+01 -1.708000305051e+01 -1.708000273803e+01 -1.708000295673e+01 -1.708000038359e+01 -1.708000065947e+01 -1.708000025689e+01 -1.708000037070e+01 -1.708000050707e+01 -1.708000054518e+01 -1.708000033664e+01 -1.708000049775e+01 -1.708000038098e+01 -1.708000145555e+01 -1.708000127270e+01 -1.708000192094e+01 -1.708000303806e+01 -1.708000309053e+01 -1.708000033193e+01 -1.708000048599e+01 -1.708000091377e+01 -1.708000109511e+01 -1.708000076868e+01 -1.708000039215e+01 -1.708000105424e+01 -1.708000111488e+01 -1.708000124055e+01 -1.708000098254e+01 -1.708000073985e+01 -1.708000015040e+01 -1.708000174746e+01 -1.708000002580e+01 -1.707999990639e+01 -1.708000087815e+01 -1.708000036407e+01 -1.707999978268e+01 -1.708000027667e+01 -1.708000269946e+01 -1.708000044670e+01 -1.708000256887e+01 -1.707999988905e+01 -1.708000139291e+01 -1.708000336721e+01 -1.708000020605e+01 -1.708000117567e+01 -1.708000040876e+01 -1.707999904763e+01 -1.708000067213e+01 -1.708000111015e+01 -1.708000117032e+01 -1.708000094191e+01 -1.708000097970e+01 -1.708000088662e+01 -1.708000095793e+01 -1.708000065699e+01 -1.708000075979e+01 -1.708000038243e+01 -1.708000044467e+01 -1.708000020620e+01 -1.708000025843e+01 -1.708000085685e+01 -1.708000058723e+01 -1.708000061679e+01 -1.707999943352e+01 -1.707999888514e+01 -1.707999933288e+01 -1.707999954927e+01 -1.707999954470e+01 -1.707999939739e+01 -1.708000040222e+01 -1.708000031612e+01 -1.708000047056e+01 -1.708000107579e+01 -1.708000104156e+01 -1.708000115326e+01 -1.708000159390e+01 -1.708000159757e+01 -1.708000194796e+01 -1.708000274841e+01 -1.708000266630e+01 -1.708000218799e+01 -1.708000164919e+01 -1.708000181480e+01 -1.708000159224e+01 -1.708000054551e+01 -1.708000059692e+01 -1.708000056543e+01 -1.708000070196e+01 -1.708000082164e+01 -1.708000082699e+01 -1.708000021755e+01 -1.708000057092e+01 -1.708000041106e+01 -1.708000084359e+01 -1.708000086484e+01 -1.708000094332e+01 -1.708000077795e+01 -1.708000096023e+01 -1.708000086582e+01 -1.708000224486e+01 -1.708000228625e+01 -1.708000249093e+01 -1.708000276933e+01 -1.708000261875e+01 -1.708000293070e+01 -1.708000117149e+01 -1.708000121365e+01 -1.708000109891e+01 -1.708000040186e+01 -1.708000051958e+01 -1.708000311110e+01 -1.708000319172e+01 -1.707999955663e+01 -1.707999914418e+01 -1.708000086192e+01 -1.708000095643e+01 -1.708000115412e+01 -1.708000103997e+01 -1.708000058655e+01 -1.708000062455e+01 -1.708000132072e+01 -1.708000145987e+01 -1.708000062097e+01 -1.708000060686e+01 -1.708000062378e+01 -1.708000078827e+01 -1.708000012186e+01 -1.708000026296e+01 -1.707999968465e+01 -1.708000091447e+01 -1.708000061520e+01 -1.708000050409e+01 -1.708000108524e+01 -1.708000185075e+01 -1.708000225753e+01 -1.708000261364e+01 -1.708000130934e+01 -1.707999962150e+01 -1.708000064104e+01 -1.708000081841e+01 -1.708000139392e+01 -1.708000060464e+01 -1.708000087643e+01 -1.708000059611e+01 -1.708000027391e+01 -1.708000318230e+01 -1.707999995335e+01 -1.707999999672e+01 -1.707999801301e+01 -1.708000098324e+01 -1.708000085228e+01 -1.708000091904e+01 -1.708000103660e+01 -1.708000087652e+01 -1.708000084970e+01 -1.708000053038e+01 -1.708000040836e+01 -1.708000062215e+01 -1.708000033152e+01 -1.708000021395e+01 -1.708000026601e+01 -1.708000043677e+01 -1.708000005309e+01 -1.708000005557e+01 -1.707999900857e+01 -1.707999857254e+01 -1.707999859677e+01 -1.708000209861e+01 -1.708000266479e+01 -1.708000240203e+01 -1.708000278472e+01 -1.708000315317e+01 -1.708000308142e+01 -1.708000180758e+01 -1.708000171067e+01 -1.708000188860e+01 -1.707999965480e+01 -1.707999976181e+01 -1.707999935553e+01 -1.708000050225e+01 -1.708000029250e+01 -1.708000022001e+01 -1.708000080110e+01 -1.708000081299e+01 -1.708000101407e+01 -1.708000071852e+01 -1.708000058532e+01 -1.708000064935e+01 -1.708000100191e+01 -1.708000101952e+01 -1.708000080950e+01 -1.708000089227e+01 -1.708000103427e+01 -1.708000112893e+01 -1.707999911044e+01 -1.707999886300e+01 -1.707999850033e+01 -1.708000158317e+01 -1.708000215852e+01 -1.708000153578e+01 -1.708000308737e+01 -1.708000311776e+01 -1.708000337434e+01 -1.708000298771e+01 -1.708000290804e+01 -1.708000294954e+01 -1.708000073444e+01 -1.708000058590e+01 -1.708000042855e+01 -1.708000105682e+01 -1.708000132193e+01 -1.708000122227e+01 -1.708000095741e+01 -1.708000067132e+01 -1.708000039568e+01 -1.708000249660e+01 -1.708000228330e+01 -1.708000106904e+01 -1.708000143954e+01 -1.708000170937e+01 -1.708000209914e+01 -1.708000073051e+01 -1.708000090315e+01 -1.708000098063e+01 -1.708000087932e+01 -1.707999864480e+01 -1.708000089149e+01 -1.708000116388e+01 -1.708000093015e+01 -1.708000017817e+01 -1.708000030357e+01 -1.708000102931e+01 -1.707999886393e+01 -1.708000260644e+01 -1.708000302983e+01 -1.708000056074e+01 -1.708000064151e+01 -1.708000119782e+01 -1.708000293736e+01 -1.708000054481e+01 -1.707999938829e+01 -1.708000085668e+01 -1.708000156725e+01 -1.708000161197e+01 -1.708000202584e+01 -1.708000052534e+01 -1.708000092590e+01 -1.708000095468e+01 -1.707999702837e+01 -1.707999929308e+01 -1.708000090177e+01 -1.708000069334e+01 -1.708000062637e+01 -1.708000030334e+01 -1.708000034536e+01 -1.708000017073e+01 -1.708000010015e+01 -1.708000000512e+01 -1.707999983935e+01 -1.708000076876e+01 -1.708000051165e+01 -1.708000066171e+01 -1.708000059824e+01 -1.708000056844e+01 -1.708000048581e+01 -1.707999803267e+01 -1.707999710786e+01 -1.707999779843e+01 -1.707999915578e+01 -1.707999848703e+01 -1.707999929219e+01 -1.707999981881e+01 -1.707999974432e+01 -1.707999995151e+01 -1.708000193227e+01 -1.708000171057e+01 -1.708000224332e+01 -1.708000298042e+01 -1.708000321291e+01 -1.708000371485e+01 -1.708000263807e+01 -1.708000285576e+01 -1.708000255069e+01 -1.708000212122e+01 -1.708000255824e+01 -1.708000214822e+01 -1.708000142561e+01 -1.708000123582e+01 -1.708000140266e+01 -1.708000034656e+01 -1.708000003949e+01 -1.707999995062e+01 -1.708000102571e+01 -1.708000065287e+01 -1.708000102316e+01 -1.708000111047e+01 -1.708000114243e+01 -1.708000089252e+01 -1.708000079067e+01 -1.708000042692e+01 -1.708000112094e+01 -1.708000384916e+01 -1.708000453885e+01 -1.708000413559e+01 -1.708000355436e+01 -1.708000371880e+01 -1.708000369106e+01 -1.708000047326e+01 -1.707999986384e+01 -1.708000039310e+01 -1.708000142184e+01 -1.708000136507e+01 -1.708000152327e+01 -1.707999981193e+01 -1.708000038838e+01 -1.708000042816e+01 -1.708000300587e+01 -1.708000327670e+01 -1.708000257247e+01 -1.708000279864e+01 -1.707999851924e+01 -1.707999817370e+01 -1.707999779631e+01 -1.708000179143e+01 -1.708000189265e+01 -1.708000137640e+01 -1.708000139463e+01 -1.708000042215e+01 -1.708000077562e+01 -1.708000070674e+01 -1.708000082388e+01 -1.708000019058e+01 -1.708000096011e+01 -1.707999975702e+01 -1.708000355650e+01 -1.708000246222e+01 -1.708000026409e+01 -1.708000121942e+01 -1.708000062540e+01 -1.708000043432e+01 -1.708000393095e+01 -1.708000152918e+01 -1.708000034300e+01 -1.708000224271e+01 -1.708000172139e+01 -1.708000324964e+01 -1.708000091086e+01 -1.708000124696e+01 -1.707999830921e+01 -1.707999919628e+01 -1.707999706298e+01 -1.708000036652e+01 -1.708000021356e+01 -1.708000034121e+01 -1.708000002612e+01 -1.707999940722e+01 -1.708000009674e+01 -1.708000050730e+01 -1.708000032083e+01 -1.708000046508e+01 -1.708000054062e+01 -1.708000065010e+01 -1.708000045331e+01 -1.708000056789e+01 -1.708000049684e+01 -1.708000051381e+01 -1.708000083789e+01 -1.708000066690e+01 -1.708000106313e+01 -1.708000387382e+01 -1.708000421993e+01 -1.708000358819e+01 -1.708000292811e+01 -1.708000259951e+01 -1.708000318451e+01 -1.708000232619e+01 -1.708000252390e+01 -1.708000255350e+01 -1.707999897829e+01 -1.707999934574e+01 -1.707999858484e+01 -1.707999975635e+01 -1.707999910373e+01 -1.707999971310e+01 -1.707999995361e+01 -1.707999988506e+01 -1.707999942554e+01 -1.708000136769e+01 -1.708000125717e+01 -1.708000175044e+01 -1.708000075398e+01 -1.708000089621e+01 -1.708000029786e+01 -1.708000241792e+01 -1.708000274829e+01 -1.708000200767e+01 -1.707999681422e+01 -1.707999693202e+01 -1.707999985351e+01 -1.708000007420e+01 -1.707999935220e+01 -1.708000501136e+01 -1.708000489618e+01 -1.708000464125e+01 -1.708000392956e+01 -1.708000384657e+01 -1.708000440616e+01 -1.708000145202e+01 -1.708000180876e+01 -1.708000158786e+01 -1.708000158051e+01 -1.708000129682e+01 -1.708000163743e+01 -1.707999777153e+01 -1.707999762503e+01 -1.707999773012e+01 -1.708000073078e+01 -1.708000122223e+01 -1.708000033617e+01 -1.707999948538e+01 -1.708000336550e+01 -1.708000315778e+01 -1.708000132511e+01 -1.708000107158e+01 -1.708000209370e+01 -1.708000232077e+01 -1.708000407764e+01 -1.708000458611e+01 -1.708000047977e+01 -1.708000059908e+01 -1.708000028135e+01 -1.708000062813e+01 -1.708000054433e+01 -1.708000122386e+01 -1.707999948709e+01 -1.708000182846e+01 -1.707999819882e+01 -1.707999742123e+01 -1.708000255445e+01 -1.708000334830e+01 -1.707999952388e+01 -1.708000123187e+01 -1.708000020485e+01 -1.708000011029e+01 -1.708000169804e+01 -1.708000451646e+01 -1.708000449264e+01 -1.708000301477e+01 -1.708000027352e+01 -1.708000212608e+01 -1.707999722289e+01 -1.708000056675e+01 -1.707999726323e+01 -1.707999518173e+01 -1.708000170745e+01 -1.708000244075e+01 -1.707999518547e+01 -1.707999577558e+01 -1.708000007912e+01 -1.708000072164e+01 -1.707999910385e+01 -1.707999390781e+01 -1.708000394998e+01 -1.708000138773e+01 -1.708000291701e+01 -1.708000335089e+01 -1.707999417015e+01 -1.707999593036e+01 -1.707999999220e+01 -1.708000006317e+01 -1.708000024056e+01 -1.707999969708e+01 -1.707999930415e+01 -1.708000034342e+01 -1.707999818487e+01 -1.708000019556e+01 -1.707999901077e+01 -1.707999943540e+01 -1.707999970647e+01 -1.708000014026e+01 -1.707999748813e+01 -1.707999775678e+01 -1.707999928423e+01 -1.707999793864e+01 -1.707999841409e+01 -1.707999853961e+01 -1.707999793124e+01 -1.707999370399e+01 -1.707999471867e+01 -1.707999527846e+01 -1.708000152058e+01 -1.708000131193e+01 -1.708000147831e+01 -1.708000142224e+01 -1.707999896966e+01 -1.707999845949e+01 -1.707999859235e+01 -1.707999898659e+01 -1.707999798134e+01 -1.707999854288e+01 -1.707999821021e+01 -1.707999835540e+01 -1.708000135405e+01 -1.708000129268e+01 -1.708000110404e+01 -1.708000150017e+01 -1.707999864685e+01 -1.707999495662e+01 -1.707999990141e+01 -1.708000183889e+01 -1.708000098526e+01 -1.707999985642e+01 -1.708000013553e+01 -1.707999910483e+01 -1.707999963791e+01 -1.707999961293e+01 -1.707999916885e+01 -1.707999854286e+01 -1.708000121776e+01 -1.707999669194e+01 -1.707999913023e+01 -1.707999772047e+01 -1.708000093551e+01 -1.707999489067e+01 -1.708000027161e+01 -1.707999538113e+01 -1.707999542462e+01 -1.707999671291e+01 -1.707999833191e+01 -1.707999694547e+01 -1.707999831478e+01 -1.707999834533e+01 -1.708000120092e+01 -1.708000104466e+01 -1.708000128841e+01 -1.708000146732e+01 -1.708000075506e+01 -1.708000126531e+01 -1.708000139389e+01 -1.707999820912e+01 -1.707999777443e+01 -1.707999800402e+01 -1.707999953097e+01 -1.707999917186e+01 -1.707999896233e+01 -1.708000001255e+01 -1.707999945175e+01 -1.707999981640e+01 -1.708000150440e+01 -1.708000174149e+01 -1.708000155407e+01 -1.707999608428e+01 -1.707999729802e+01 -1.707999684711e+01 -1.707999963704e+01 -1.707999909298e+01 -1.707999854124e+01 -1.707999882033e+01 -1.708000261203e+01 -1.708000036034e+01 -1.708000126346e+01 -1.708000111903e+01 -1.708000059985e+01 -1.708000125273e+01 -1.708000152113e+01 -1.707999850177e+01 -1.707999836855e+01 -1.707999781916e+01 -1.707999898170e+01 -1.707999887691e+01 -1.707999842268e+01 -1.707999921036e+01 -1.708000043557e+01 -1.708000025808e+01 -1.708000072099e+01 -1.707999941874e+01 -1.707999931404e+01 -1.707999979867e+01 -1.707999945318e+01 -1.707999985667e+01 -1.708000012051e+01 -1.708000065695e+01 -1.708000055402e+01 -1.708000111458e+01 -1.707999989719e+01 -1.708000017991e+01 -1.708000091257e+01 -1.708000082167e+01 -1.707999936359e+01 -1.707999968214e+01 -1.707999921706e+01 -1.707999967955e+01 -1.707999831156e+01 -1.707999745213e+01 -1.707999781028e+01 -1.707999850069e+01 -1.708000092305e+01 -1.708000030008e+01 -1.708000084702e+01 -1.708000046155e+01 -1.707999878477e+01 -1.707999831464e+01 -1.707999908955e+01 -1.707999816621e+01 -1.708000080628e+01 -1.708000128146e+01 -1.708000151678e+01 -1.708000018846e+01 -1.708000015231e+01 -1.708000032034e+01 -1.707999930769e+01 -1.707999989142e+01 -1.707999708123e+01 -1.708000020604e+01 -1.707999730777e+01 -1.707999451009e+01 -1.708000034032e+01 -1.708000151495e+01 -1.708000134746e+01 -1.708000072991e+01 -1.707999923547e+01 -1.707999897193e+01 -1.708000224025e+01 -1.708000134177e+01 -1.708000276351e+01 -1.708000152371e+01 -1.708000248512e+01 -1.708000145743e+01 -1.707999642866e+01 -1.707999564994e+01 -1.707999700665e+01 -1.707999910706e+01 -1.707999865653e+01 -1.707999886378e+01 -1.707999878985e+01 -1.707999926571e+01 -1.707999856804e+01 -1.707999976611e+01 -1.707999728413e+01 -1.707999826311e+01 -1.707999908898e+01 -1.707999667040e+01 -1.707999704237e+01 -1.707999557801e+01 -1.707999681540e+01 -1.707999780821e+01 -1.708000002792e+01 -1.707999961254e+01 -1.707999971941e+01 -1.708000063675e+01 -1.708000028701e+01 -1.707999762995e+01 -1.707999741184e+01 -1.707999716251e+01 -1.708000189362e+01 -1.708000180137e+01 -1.708000250678e+01 -1.708000129145e+01 -1.708000084680e+01 -1.708000211934e+01 -1.708000093751e+01 -1.708000111599e+01 -1.708000052311e+01 -1.708000145061e+01 -1.707999913607e+01 -1.707999955706e+01 -1.708000070371e+01 -1.708000099028e+01 -1.708000120615e+01 -1.708000067348e+01 -1.708000150028e+01 -1.708000111164e+01 -1.708000095927e+01 -1.708000034138e+01 -1.707999802794e+01 -1.708000149260e+01 -1.707999689848e+01 -1.707999607277e+01 -1.707999751702e+01 -1.707999775216e+01 -1.707999767559e+01 -1.707999791634e+01 -1.708000072053e+01 -1.708000053553e+01 -1.708000075486e+01 -1.707999897612e+01 -1.707999835931e+01 -1.707999963861e+01 -1.707999900735e+01 -1.708000112990e+01 -1.708000181603e+01 -1.708000094934e+01 -1.708000041204e+01 -1.708000072233e+01 -1.707999954467e+01 -1.707999969730e+01 -1.707999939690e+01 -1.708000023105e+01 -1.707999943913e+01 -1.708000178556e+01 -1.708000167969e+01 -1.708000143109e+01 -1.708000141983e+01 -1.708000224980e+01 -1.707999914364e+01 -1.707999826799e+01 -1.707999984476e+01 -1.708000417888e+01 -1.708000403594e+01 -1.707999541946e+01 -1.707999358866e+01 -1.707999704165e+01 -1.707999721377e+01 -1.707999564020e+01 -1.707999611777e+01 -1.707999673049e+01 -1.707999724585e+01 -1.707999504945e+01 -1.707999697156e+01 -1.707999733640e+01 -1.707999667702e+01 -1.707999626186e+01 -1.707999880389e+01 -1.707999917562e+01 -1.708000042391e+01 -1.707999310845e+01 -1.707999361335e+01 -1.707999836768e+01 -1.707999867212e+01 -1.707999887318e+01 -1.707999831140e+01 -1.708000014687e+01 -1.708000246591e+01 -1.708000325156e+01 -1.708000205612e+01 -1.708000279685e+01 -1.707999532243e+01 -1.707999595204e+01 -1.707999348741e+01 -1.707999425204e+01 -1.707999538024e+01 -1.707999749042e+01 -1.707999718013e+01 -1.707999793735e+01 -1.708000043690e+01 -1.708000047263e+01 -1.708000009719e+01 -1.708000109236e+01 -1.708000070333e+01 -1.708000121440e+01 -1.707999784578e+01 -1.707999606348e+01 -1.707999824638e+01 -1.707999883979e+01 -1.707999891520e+01 -1.707999705980e+01 -1.708000255338e+01 -1.708000282941e+01 -1.708000179335e+01 -1.707999476046e+01 -1.708000053909e+01 -1.708000041725e+01 -1.708000041038e+01 -1.707999695607e+01 -1.707999805261e+01 -1.707999700151e+01 -1.707999810273e+01 -1.707999848086e+01 -1.707999878125e+01 -1.707999924988e+01 -1.707999917305e+01 -1.707999988199e+01 -1.708000027122e+01 -1.707999517199e+01 -1.707999547974e+01 -1.707999680249e+01 -1.707999784672e+01 -1.708000112158e+01 -1.708000050611e+01 -1.708000179605e+01 -1.708000144902e+01 -1.707999851233e+01 -1.708000008659e+01 -1.707999742870e+01 -1.707999713507e+01 -1.707999656449e+01 -1.707999775625e+01 -1.708000070420e+01 -1.707999794098e+01 -1.707999740206e+01 -1.707999868799e+01 -1.707999910463e+01 -1.708000010642e+01 -1.708000066668e+01 -1.707999992373e+01 -1.707999961462e+01 -1.707999973502e+01 -1.707999398022e+01 -1.707999828104e+01 -1.708000035403e+01 -1.707999503028e+01 -1.707999590770e+01 -1.707999727561e+01 -1.708000030261e+01 -1.708000010093e+01 -1.707999849100e+01 -1.708000172290e+01 -1.707999678591e+01 -1.708000043288e+01 -1.708000055151e+01 -1.708000025034e+01 -1.708000002101e+01 -1.707999926871e+01 -1.707999490773e+01 -1.708000059993e+01 -1.708000041767e+01 -1.707999981593e+01 -1.707999897835e+01 -1.707999897761e+01 -1.707999798927e+01 -1.707999837263e+01 -1.707999822382e+01 -1.707999924371e+01 -1.707999887257e+01 -1.707999694141e+01 -1.708000222619e+01 -1.708000399366e+01 -1.708000359843e+01 -1.707999873603e+01 -1.708000328346e+01 -1.708000306521e+01 -1.708000054182e+01 -1.707999669691e+01 -1.708000253109e+01 -1.707999502719e+01 -1.707999521431e+01 -1.707999955171e+01 -1.708000077270e+01 -1.707999675779e+01 -1.708000043068e+01 -1.707999308227e+01 -1.707999415726e+01 -1.707999389965e+01 -1.707999950217e+01 -1.707999918094e+01 -1.707999949471e+01 -1.708000133235e+01 -1.708000175951e+01 -1.707999771134e+01 -1.708000216530e+01 -1.708000168186e+01 -1.708000062387e+01 -1.707999775814e+01 -1.707999819686e+01 -1.708000007563e+01 -1.708000159276e+01 -1.707999812798e+01 -1.708000112728e+01 -1.707999769328e+01 -1.707999978422e+01 -1.707999710884e+01 -1.707999291389e+01 -1.708000014341e+01 -1.707999514196e+01 -1.707999639506e+01 -1.708000007040e+01 -1.707999828876e+01 -1.708000038631e+01 -1.707999782800e+01 -1.707999882593e+01 -1.708000049089e+01 -1.708000001126e+01 -1.708000159480e+01 -1.707999902134e+01 -1.707999762170e+01 -1.708000059762e+01 -1.707999808943e+01 -1.707999817274e+01 -1.707999861740e+01 -1.707999976170e+01 -1.707999793985e+01 -1.708000007710e+01 -1.707999967692e+01 -1.707999997168e+01 -1.707999890273e+01 -1.707999825652e+01 -1.707999956386e+01 -1.708000044496e+01 -1.707999697650e+01 -1.707999660342e+01 -1.707999762438e+01 -1.707999714365e+01 -1.707999820873e+01 -1.707999973050e+01 -1.707999977791e+01 -1.708000026731e+01 -1.707999920610e+01 -1.707999769801e+01 -1.707999585130e+01 -1.708000073882e+01 -1.707999838225e+01 -1.708000091740e+01 -1.707999902816e+01 -1.707999940595e+01 -1.707999732818e+01 -1.707999771954e+01 -1.708000155116e+01 -1.708000114577e+01 -1.708000138421e+01 -1.707999894531e+01 -1.708000176000e+01 -1.707999838397e+01 -1.707999822201e+01 -1.708000005189e+01 -1.707999924447e+01 -1.707999881593e+01 -1.708000129559e+01 -1.707999831389e+01 -1.707999887249e+01 -1.707999681970e+01 -1.707999685539e+01 -1.707999965507e+01 -1.707999585132e+01 -1.707999780333e+01 -1.708000158384e+01 -1.707999783336e+01 -1.707999999230e+01 -1.708000147201e+01 -1.707999906879e+01 -1.708000154607e+01 -1.707999601715e+01 -1.707999238508e+01 -1.707999753401e+01 -1.707999984381e+01 -1.708000167074e+01 -1.707999826234e+01 -1.707999799270e+01 -1.707999905023e+01 -1.708000110911e+01 -1.707999951149e+01 -1.707999792432e+01 -1.707999915021e+01 -1.708000016727e+01 -1.707999772982e+01 -1.708000180042e+01 -1.708000076797e+01 -1.707999996263e+01 -1.708000126458e+01 -1.707999916625e+01 -1.707999764316e+01 -1.708000016173e+01 -1.707999785633e+01 -1.707999797607e+01 -1.707999606842e+01 -1.707999777732e+01 -1.708000124004e+01 -1.707999950095e+01 -1.707999782534e+01 -1.707999913780e+01 -1.707999962730e+01 -1.708000116081e+01 -1.707999939416e+01 -1.707999976414e+01 -1.707999928828e+01 -1.708000100552e+01 -1.708000077175e+01 -1.707999987933e+01 -1.707999874455e+01 -1.707999959996e+01 -1.707999989063e+01 -1.707999978882e+01 -1.708000121627e+01 -1.708000098460e+01 -1.708000160580e+01 -1.708000140043e+01 -1.707999814391e+01 -1.708000066876e+01 -1.707999944244e+01 -1.708000145901e+01 -1.707999911277e+01 -1.708000136925e+01 -1.708000014872e+01 -1.707999914582e+01 -1.707999764622e+01 -1.707999971370e+01 -1.707999926058e+01 -1.708000116924e+01 -1.707999808488e+01 -1.707999752507e+01 -1.708000051207e+01 -1.707999990865e+01 -1.708000189140e+01 -1.708000081463e+01 -1.708000056868e+01 -1.708000003154e+01 -1.707999981654e+01 -1.707999857722e+01 -1.707999751414e+01 -1.708000043130e+01 -1.708000061018e+01 -1.707999888363e+01 -1.707999621626e+01 -1.708000043423e+01 -1.708000096132e+01 -1.708000038693e+01 -1.707999859024e+01 -1.708000105889e+01 -1.708000007938e+01 -1.708000079211e+01 -1.708000032513e+01 -1.707999960421e+01 -1.708000056665e+01 -1.708000054283e+01 -1.707999826419e+01 -1.707999992099e+01 -1.708000145024e+01 -1.707999877996e+01 -1.708000160523e+01 -1.708000148290e+01 -1.708000097411e+01 -1.707999847651e+01 -1.707999990342e+01 -1.708000047238e+01 -1.707999876464e+01 -1.707999989682e+01 -1.708000050009e+01 -1.707999845479e+01 -1.707999892509e+01 -1.707999867745e+01 -1.707999685629e+01 -1.708000005853e+01 -1.707999904840e+01 -1.708000075440e+01 -1.707999900952e+01 -1.708000060053e+01 -1.707999910216e+01 -1.708000131349e+01 -1.707999842873e+01 -1.707999823244e+01 -1.708000055209e+01 -1.707999825655e+01 -1.708000229799e+01 -1.708000142018e+01 -1.707999838946e+01 -1.707999971092e+01 -1.708000059429e+01 -1.708000011073e+01 -1.707999984932e+01 -1.707999995312e+01 -1.707999790533e+01 -1.708000090666e+01 -1.707999773302e+01 -1.708000090761e+01 -1.707999875178e+01 -1.708000064487e+01 -1.707999889806e+01 -1.707999813172e+01 -1.707999981997e+01 -1.707999946625e+01 -1.707999956767e+01 -1.708000135254e+01 -1.708000078372e+01 -1.708000215561e+01 -1.707999964718e+01 -1.708000034512e+01 -1.708000057983e+01 -1.708000002223e+01 -1.708000027019e+01 -1.707999894531e+01 -1.707999998984e+01 -1.707999861710e+01 -1.707999910276e+01 -1.708000092603e+01 -1.708000035080e+01 -1.708000058442e+01 -1.707999759846e+01 -1.708000155364e+01 -1.707999950119e+01 -1.708000005146e+01 -1.708000083736e+01 -1.708000167604e+01 -1.707999996236e+01 -1.707999610433e+01 -1.708000011182e+01 -1.708000075510e+01 -1.707999977914e+01 -1.708000138202e+01 -1.708000045251e+01 -1.707999909056e+01 -1.708000109499e+01 -1.708000070059e+01 -1.708000035789e+01 -1.707999898830e+01 -1.707999843317e+01 -1.707999828897e+01 -1.707999671351e+01 -1.708000079061e+01 -1.708000099708e+01 -1.708000172733e+01 -1.707999839095e+01 -1.707999913500e+01 -1.707999964837e+01 -1.708000027306e+01 -1.708000048664e+01 -1.708000002033e+01 -1.707999669206e+01 -1.707999962300e+01 -1.707999991362e+01 -1.708000070053e+01 -1.708000196651e+01 -1.707999945351e+01 -1.708000060796e+01 -1.707999735183e+01 -1.708000207741e+01 -1.708000106459e+01 -1.708000055184e+01 -1.708000169272e+01 -1.708000031945e+01 -1.707999936140e+01 -1.707999896535e+01 -1.708000034773e+01 -1.708000096735e+01 -1.708000190753e+01 -1.708000136727e+01 -1.707999763633e+01 -1.708000170135e+01 -1.707999978546e+01 -1.707999940499e+01 -1.708000199164e+01 -1.708000220476e+01 -1.707999985046e+01 -1.707999907946e+01 -1.707999999446e+01 -1.708000078354e+01 -1.707999874106e+01 -1.707999678531e+01 -1.707999989901e+01 -1.708000157718e+01 -1.707999752216e+01 -1.707999931065e+01 -1.707999876048e+01 -1.708000132408e+01 -1.707999652468e+01 -1.707999965874e+01 -1.708000032586e+01 -1.708000090313e+01 -1.707999969864e+01 -1.708000028043e+01 -1.708000034411e+01 -1.707999991989e+01 -1.707999743280e+01 -1.708000029369e+01 -1.707999986342e+01 -1.708000143309e+01 -1.707999593884e+01 -1.708000199898e+01 -1.707999904922e+01 -1.708000372030e+01 -1.707999993625e+01 -1.707999984559e+01 -1.708000007481e+01 -1.708000066954e+01 -1.707999801521e+01 -1.707999896415e+01 -1.707999995592e+01 -1.707999977721e+01 -1.707999870218e+01 -1.707999794079e+01 -1.708000013043e+01 -1.707999917003e+01 -1.707999971001e+01 -1.708000126239e+01 -1.707999795629e+01 -1.708000113493e+01 -1.708000136726e+01 -1.707999564009e+01 -1.708000070049e+01 -1.708000102706e+01 -1.707999868459e+01 -1.708000147973e+01 -1.707999772571e+01 -1.707999520231e+01 -1.708000102272e+01 -1.707999940697e+01 -1.707999822718e+01 -1.708000116202e+01 -1.708000035506e+01 -1.708000251441e+01 -1.707999983031e+01 -1.708000136385e+01 -1.708000213582e+01 -1.708000164371e+01 -1.708000020976e+01 -1.707999822578e+01 -1.707999838160e+01 -1.707999816010e+01 -1.707999620125e+01 -1.708000002154e+01 -1.707999982935e+01 -1.707999843067e+01 -1.708000104179e+01 -1.707999965374e+01 -1.707999872931e+01 -1.707999928300e+01 -1.708000015926e+01 -1.708000235131e+01 -1.707999696317e+01 -1.708000013596e+01 -1.707999865416e+01 
        </DataArray>
        <DataArray type="Float64" Name="STRESS_XZ" format="ascii">
          -2.635105036263e-07 -7.998720542750e-08 -2.474546381327e-07 -2.009240800951e-08 -1.597803086421e-09 -1.594143509328e-09 -5.263441358775e-08 -3.635481568861e-08 -2.376534065694e-08 -7.697233724689e-08 -1.712755380269e-07 -1.799187273545e-07 -1.006624225081e-07 -7.804114133178e-08 -2.506212020137e-07 -7.975757301549e-08 -1.995794861062e-07 -1.657165032424e-07 -3.030599090769e-07 -1.684511884022e-07 -2.815752733845e-07 -9.702836337401e-08 -3.133983396482e-07 -7.428014234865e-08 -1.464810090659e-08 1.836478207309e-08 -2.962815266231e-07 -2.523242918734e-07 -2.979333977251e-07 -1.752651185908e-07 -3.953267914625e-07 -1.369882791548e-07 -3.194117419662e-07 -4.182558691306e-07 -5.334139284148e-07 2.001486591647e-08 1.962052476731e-08 -9.189828371549e-09 -4.994100103006e-07 -2.442781126949e-07 -1.635807425244e-08 7.106957537302e-08 -1.198558965835e-08 -9.170038920500e-08 -1.984579228222e-07 5.328652961364e-09 -5.004587383973e-08 -4.011835061261e-07 -2.796573571999e-07 -3.646142953089e-07 -1.921298522957e-07 -2.406615793290e-07 -2.780952536895e-07 -4.200978069686e-07 -2.473055863425e-07 2.233345306688e-08 -8.531557427229e-08 -2.366930508373e-07 -5.646262862500e-07 -2.460713056929e-07 -4.648050535056e-07 -1.406604672449e-07 1.252107999433e-08 -2.584528883496e-07 -1.136423029220e-07 -3.736160928246e-08 -2.374439429909e-08 -3.289035137493e-08 -7.658848093322e-08 -1.114478069089e-07 6.880863822989e-08 -5.374259508749e-08 -1.203149911097e-07 -1.956912897508e-07 -2.779643150073e-07 -3.505058000430e-07 -9.172684086926e-08 -2.334225245707e-08 -2.782389882424e-07 -3.237831723808e-07 -1.552673725366e-07 -2.020675493917e-07 -4.682793206797e-07 -5.643338872240e-08 3.948195567113e-08 -2.569542010612e-07 -3.244528734223e-07 -3.858826914299e-07 -2.396197291236e-07 -1.821138872439e-07 6.103245413065e-09 -3.642547801038e-07 -1.486714862723e-07 4.973664672025e-08 1.181904622466e-07 -4.500892989864e-08 -2.387178705293e-07 -2.973807472382e-07 -2.667721137237e-07 -2.156540243335e-07 -2.442037281971e-07 -6.719752822980e-08 3.876531342090e-08 -1.171801585954e-07 -4.434651344254e-07 -3.436987808062e-07 -3.067638369998e-07 -3.828269811144e-07 -2.782543798846e-07 1.775000440106e-08 -5.073973495746e-09 4.257440509641e-08 2.174850414951e-08 1.828546300281e-08 1.847568042518e-08 2.758887927898e-08 -7.493105939915e-08 -1.212777664586e-07 8.006807219422e-08 8.273705565049e-08 1.279369481348e-07 -1.162792292983e-08 -1.551693441891e-08 3.912268378905e-08 1.021911019573e-07 1.827851522999e-07 1.741132772877e-07 1.957869481850e-07 1.247227972192e-07 2.102377974459e-07 1.267128504087e-07 1.180368506718e-07 3.984313204479e-08 5.638987916537e-09 6.384519638430e-09 9.558807694612e-08 6.564009515760e-08 1.294003608345e-07 5.328395073735e-08 5.621508287805e-08 2.548870536376e-08 1.755749818067e-07 1.890333242307e-07 2.398178930293e-07 2.457448621634e-08 -4.433581098998e-08 1.372495740196e-08 2.316980321060e-07 2.143740175304e-07 1.494167560915e-07 8.015336386974e-08 8.347424641529e-08 1.093113424088e-07 6.400413361904e-08 6.093251401416e-10 1.287370613952e-08 1.284518217802e-07 1.350875868752e-07 1.731027323588e-07 1.230924357147e-07 1.239111064826e-07 2.429213564497e-07 2.117424375059e-07 8.539676976603e-08 1.797723104583e-08 4.954068056450e-08 7.971980719189e-08 1.795864397998e-07 2.097341946585e-07 1.694454495145e-07 9.610649239402e-08 5.502933518138e-08 6.891882847359e-08 1.357802997252e-07 9.782887314687e-09 7.650348638391e-09 -4.389044399690e-08 1.327139273818e-08 8.891670881801e-08 9.147460745757e-08 3.106994081342e-08 9.980242658322e-09 9.614985800541e-08 2.610378521687e-07 3.067057654406e-07 2.254334646846e-08 6.281367394692e-10 1.753893323663e-07 7.982670437739e-08 3.007659139104e-08 9.401621516198e-08 1.589804527638e-07 4.505476490689e-08 4.977105944185e-08 2.206371366214e-07 2.923325166464e-07 1.139207566201e-07 5.933693207636e-08 2.132056593994e-07 -2.528507874083e-08 9.448587899350e-08 9.477651962920e-08 -5.268368083605e-09 8.007336500799e-08 5.841592701232e-09 4.912153097083e-08 1.494548694323e-07 7.399062547783e-08 5.163847869130e-08 3.199580754638e-07 1.353749324622e-07 6.688620668255e-10 1.041206593447e-07 7.747680453691e-08 5.573119640481e-08 1.117794232916e-07 1.251630230200e-07 1.140193708151e-07 1.338634032181e-07 1.432491637517e-08 -2.351216139613e-08 2.362785161509e-07 5.263113588838e-07 2.184333810319e-07 9.760655007931e-08 1.659213269503e-07 -1.931246467062e-07 -1.058310937932e-08 5.790299053220e-07 8.412730498208e-08 1.761379200213e-07 -3.803602129226e-07 -2.317491400550e-07 -3.335611136343e-07 -2.756437422366e-07 -7.995038275252e-08 5.948811944736e-08 -1.418428066746e-07 -4.386258771732e-08 6.218067864992e-09 -2.519819500960e-07 -3.003220032042e-07 4.512939170446e-08 -4.435859097163e-07 3.343784406236e-08 -1.047732619578e-07 -1.231309324537e-07 2.369948950017e-07 2.404221088666e-07 3.659337027402e-07 -9.869739540871e-08 -7.296120680445e-08 8.073239154255e-07 4.428429185354e-07 3.165828141922e-07 1.650116030673e-07 -8.685879696030e-08 -2.564361149697e-07 3.291748707602e-07 -7.123463158040e-09 5.547737972359e-10 4.167145917183e-07 2.249791440830e-07 5.293409235024e-08 7.718615384672e-07 6.902626714346e-07 4.529875406819e-07 -1.339636194400e-07 -4.193865569049e-07 -2.033749351374e-07 1.777896906543e-07 -7.514191027980e-08 -7.884359692678e-08 8.589406113764e-08 2.587829873045e-07 -1.099284338771e-07 4.531507273634e-07 1.585095098130e-07 8.053246923156e-07 3.037697327392e-07 4.903627862948e-07 1.013874086627e-06 1.044057979500e-06 9.997386839596e-07 2.832314905011e-07 5.286596100232e-07 5.003226827076e-07 -4.772365504523e-07 1.171047734180e-07 6.688001987986e-07 1.123460498754e-07 3.287457300017e-07 1.259911870641e-06 1.111893204304e-06 1.286968622197e-06 1.016950673133e-06 9.967494356793e-07 1.196050615361e-06 1.121432906072e-06 6.300310775261e-07 7.717411424623e-08 3.191490430542e-07 -1.276471597561e-07 2.629380433361e-07 1.992686073129e-08 -3.418263940938e-07 9.619158910833e-07 1.180754291923e-06 1.096182998428e-06 9.432831386136e-07 1.287516519584e-06 1.398367890137e-06 1.285723629096e-06 1.255932434496e-06 -1.339415246041e-07 1.024905921350e-08 -4.514046969653e-08 -2.439863556232e-07 5.167760997995e-08 -7.508023291462e-08 -1.281555058166e-07 -8.633713669048e-08 -3.470713035991e-08 -6.240034729992e-09 -1.810691267985e-07 -3.926934591513e-09 -1.647693384643e-07 -8.290500197660e-08 3.943469326903e-08 8.129805927647e-08 -4.258098913262e-08 2.004820936626e-07 -1.641024616486e-07 -2.174067192709e-07 5.376476684400e-07 1.451428788911e-07 1.912226837212e-07 5.434041706092e-07 5.303845858266e-07 1.471384651989e-07 -1.240461718053e-08 2.148162456030e-07 3.692259771108e-07 6.939623094503e-07 6.323988193645e-07 -1.546775110728e-07 -1.355727654539e-07 -2.111775794348e-07 -9.947959121995e-08 -1.082112148614e-07 2.131023966120e-08 6.787840821471e-07 2.405498806122e-07 2.704263532522e-07 1.175131496367e-06 1.165751264893e-06 4.853635244835e-07 8.771920622239e-07 5.451508375329e-07 8.962070376409e-07 1.126227183094e-06 1.020279421623e-06 8.792236675849e-07 1.032040557631e-06 7.659071486785e-07 6.894925182070e-07 4.923478437437e-07 1.037202273654e-06 6.886924960158e-07 8.497903291061e-07 1.068079309119e-06 3.133753945880e-07 6.215216073036e-07 7.520473280745e-07 9.793161091315e-07 8.096532993775e-07 -8.296677052511e-07 -8.029038634834e-07 -6.405838182331e-07 -2.528576207146e-07 -4.171745737667e-07 -2.185810317161e-07 -2.134281654244e-07 -5.175217810334e-08 -8.838596190523e-08 1.092379818322e-06 1.321012201081e-06 1.291197456113e-06 1.028886025789e-06 1.223999041015e-06 1.156003770449e-06 1.162289297265e-06 1.028798392531e-06 -3.523264465237e-07 -2.254604568168e-07 -1.479342563987e-07 -1.701466407377e-07 1.680262173463e-07 2.725545447610e-07 5.050814489761e-07 3.047153901621e-07 4.094576891210e-07 7.072483192307e-07 5.216003298490e-07 1.528666907626e-06 1.380569797017e-06 1.039942084225e-06 1.452087372423e-06 1.500595901330e-06 -4.788281096855e-07 -5.560563914368e-07 -5.220814280013e-07 -3.971589975296e-07 7.020739167793e-07 7.524405959831e-07 4.015913842406e-07 8.397715814520e-07 3.425430105162e-07 5.758698275988e-07 4.831467843268e-07 9.171114350859e-07 1.111221110367e-06 8.634916015542e-07 -1.551148518636e-09 1.962018993787e-07 1.314199465259e-06 1.092046546440e-06 -1.338935311726e-07 -2.421003469835e-07 -2.165813297046e-07 2.197572667987e-08 8.416908347222e-07 1.108499933693e-06 5.763247444589e-07 7.593571357496e-07 8.211585932628e-07 9.912530941802e-07 5.296990858208e-07 6.697577285449e-07 9.340283146557e-07 1.179741613761e-06 1.285036292355e-06 7.137807027682e-07 8.803177146467e-07 3.263818482863e-07 2.949929041266e-08 4.352010026427e-07 4.996138164195e-07 -1.823099240961e-07 -2.189090029206e-07 -5.783067230146e-07 5.628178707617e-07 4.560990098518e-07 -5.243490701928e-07 -4.110854491125e-07 -3.843518467051e-07 7.837197855192e-08 1.100575336244e-07 2.106997903168e-07 -1.045144999497e-07 1.532300056775e-07 -2.824556698939e-07 -2.239850074456e-07 -3.227750716784e-07 1.453537344050e-07 7.059331804839e-07 6.032954366110e-07 -9.956043681232e-08 7.270234333315e-08 1.089084737413e-07 6.869102642462e-08 1.915748130659e-08 -7.797697054722e-08 1.399051672407e-07 -2.633535109098e-08 1.247081018742e-06 1.274931593628e-06 1.116215523074e-06 2.261375320941e-07 1.698258796766e-07 5.279267274407e-09 4.726051568977e-07 1.748365018036e-07 2.129437638229e-07 4.514094553579e-07 1.293221785745e-07 9.140472672512e-08 9.453292588383e-07 6.991425294075e-07 1.181428440977e-06 3.955651135394e-07 4.386141535457e-07 2.683465389261e-07 4.985522604399e-07 5.103973644524e-07 -4.952595002900e-07 3.542754892993e-08 1.678494647110e-06 1.510706306368e-06 1.449308737585e-06 1.495421582302e-06 -2.989104513453e-07 -2.716991187129e-07 9.640051633358e-07 2.718034116959e-07 9.125101199874e-08 1.418012610155e-06 1.414601233516e-06 1.195879496443e-06 8.351070614365e-07 4.956728133839e-07 2.290650861544e-07 9.720782060378e-07 1.050390053312e-06 8.665401647770e-07 8.772515293154e-07 -7.506463152162e-08 -4.018259365149e-08 3.451056847760e-08 1.828194917532e-07 1.517148876018e-07 1.825110119408e-07 -5.488727619053e-07 -3.373372272032e-07 -4.668238765022e-07 -2.845463179711e-07 -5.549175546043e-07 -3.777460111981e-07 1.555125209227e-07 1.813700470912e-07 3.146064716834e-07 9.204057665659e-07 1.374031776816e-06 2.318567039124e-08 -2.090254431109e-07 3.665108863291e-07 -9.397321926928e-08 1.435793633425e-06 1.533893965132e-06 7.101136831633e-07 4.043688397725e-07 7.755670311027e-08 2.898002806811e-07 3.461870880773e-08 6.734943960202e-08 -1.322508116696e-07 4.274883902395e-07 5.636173695530e-07 5.273916921167e-07 2.859814613172e-07 -1.331743907053e-07 -5.696406238725e-08 -1.747973588133e-08 2.013973844067e-07 -4.567833274421e-08 3.622818180709e-07 4.051218974143e-08 -4.065755511700e-07 -5.769282187888e-07 7.609230134523e-07 2.340561475269e-07 1.587172855591e-06 1.291178305402e-07 2.618816366223e-07 3.373126315302e-07 3.011684520172e-07 -6.736823164404e-07 -4.456707374828e-07 4.461717033240e-07 -4.930921897730e-08 5.331074515426e-07 1.783634149846e-07 5.562412110200e-08 1.121851060553e-07 -5.266181424259e-07 -7.952522303798e-07 -7.297428121918e-07 2.918017149934e-07 1.114050635138e-07 2.987168125732e-07 9.996078026873e-08 3.086424519517e-07 7.909186109864e-08 2.240782615486e-07 -1.036517998863e-07 -1.904672778463e-08 -2.377778743972e-07 -5.810938740125e-08 6.107927964028e-07 6.801051179949e-07 7.073173820918e-07 6.440470823460e-07 3.418226099919e-07 5.052132422084e-07 7.293553781082e-07 5.526460147382e-07 6.813877508420e-07 -1.274439113102e-07 -1.651998230942e-07 -9.811147939485e-08 7.113382844220e-08 -3.537061639601e-07 7.077881931410e-07 8.989534861584e-07 6.658463422881e-07 3.944815855405e-07 8.603438568982e-08 3.271784476945e-07 -1.489706232408e-07 5.089228334294e-07 2.640639507159e-08 -1.130348236187e-07 -1.541012702230e-07 -4.522879491989e-07 -3.228846308023e-07 -2.800477175378e-07 -5.304217959093e-07 -5.003586877204e-07 -7.718617832226e-07 2.510035890393e-08 -3.915488707965e-08 7.290385704094e-08 -2.386085914522e-07 -2.713084335506e-07 -4.935539194039e-08 -4.747129947193e-08 1.220572160971e-07 -3.010690132807e-07 -9.706194808338e-08 5.907751132886e-08 -3.773421908580e-08 -5.930256712333e-08 -5.710223896819e-08 4.793541912510e-07 9.420274768352e-08 -3.351832432533e-07 -1.704141662881e-07 5.867081307229e-07 -1.722106188040e-07 -1.199751345669e-08 -4.393780892005e-07 -5.219942191945e-07 -5.321298983438e-07 -4.883789193868e-07 -3.901476175992e-07 -4.490024840906e-07 1.610939428506e-06 9.710816064645e-07 2.558032570432e-07 7.962160182015e-07 5.807756214828e-07 -2.478099561825e-07 -4.438795662940e-08 -9.615987462770e-08 -4.398459464942e-09 3.355518953266e-08 7.068938055325e-08 7.288040736035e-08 8.233360040752e-08 1.408293314429e-06 7.010972086895e-07 -6.303818532123e-08 -5.092024768029e-07 -1.135022412049e-08 -1.420425026521e-07 1.339750927621e-06 9.020207673588e-08 9.844261151322e-07 9.839650392384e-07 4.845768368500e-07 1.106279512984e-06 -3.298095088633e-07 -2.229045399706e-07 -4.093921227662e-07 4.170392641263e-07 3.012864023006e-07 1.009901927563e-07 -8.656157921859e-07 -8.004100425502e-07 -7.630806872829e-07 -2.797129753712e-07 -2.057583933008e-07 -9.402419431311e-08 1.804754974383e-07 -6.959803626845e-08 2.859011659221e-07 -1.945647910178e-07 1.473308288403e-06 3.938118152560e-07 6.156906894262e-07 8.219720876062e-07 6.582145025895e-07 5.733199544166e-08 2.234792498042e-07 7.320671325377e-07 7.156364383484e-07 9.843910578866e-07 1.578859381863e-06 1.240461150170e-06 1.953658551680e-07 8.411061787702e-08 -1.028265614377e-08 6.655615307111e-07 7.569665680500e-07 1.016822616858e-06 1.017044400828e-06 1.214148673333e-06 1.114968759991e-06 -5.547689169500e-07 -6.312007451615e-08 -1.196764453690e-07 1.061578964004e-07 -2.993812216169e-09 2.709537322445e-07 4.327832819792e-07 -1.731849665559e-07 -3.092246220735e-07 -3.981714636600e-07 5.487232012405e-07 5.415564306997e-07 7.216901528118e-07 3.949236019365e-07 2.881677486307e-07 -1.048020378969e-06 -1.217908579810e-07 1.024059000344e-06 1.372945284883e-07 -1.544022035280e-07 3.951323795139e-07 -1.599144216986e-07 -1.329119054386e-07 -2.341323854892e-07 -9.424751235693e-08 1.003418214793e-07 -6.231672626854e-07 1.485748012506e-06 1.468370863308e-06 4.540392071732e-07 1.022041475807e-06 5.212242931823e-07 2.127602863631e-07 -2.675130059447e-08 1.020096170197e-06 2.313852320160e-07 2.332898306514e-07 3.394362703239e-07 -4.238989089855e-08 2.699606565381e-07 1.722183453260e-07 4.422937727274e-07 4.665673164622e-07 6.417832511423e-07 -3.514878388455e-07 -4.308912520743e-07 6.073502738766e-07 4.344713562390e-07 5.538745849324e-07 -1.846636736865e-07 8.441941189010e-07 8.769691238333e-07 5.027524118018e-07 6.472301787568e-07 9.154593251411e-08 1.000151886518e-06 9.891241059904e-07 1.003949734014e-06 -2.155898583660e-08 8.107630366777e-08 -1.103556735843e-07 4.410095443903e-08 1.967239892426e-06 -1.843788684653e-07 1.148435297236e-06 1.402763613400e-06 6.325534421401e-07 -2.114864494068e-07 -2.782040227849e-07 2.293453002075e-07 1.224892343369e-06 -3.210412883201e-07 -6.051052508939e-07 6.063138384595e-08 -4.515570825467e-07 -3.987261449442e-07 7.672710512181e-08 7.172227637741e-07 1.574445821110e-06 1.161090967708e-06 -2.464380476417e-07 -4.648365318906e-07 -5.826999142578e-07 1.577491303575e-07 4.908397155159e-07 1.319515925922e-07 1.423475524330e-06 4.682482808723e-07 2.530749026974e-07 3.797450603874e-07 1.219650650138e-06 -6.551928548315e-07 -7.174253857159e-08 4.261796018142e-07 9.409211209359e-07 3.803666712574e-07 1.429327288983e-06 2.525617087114e-08 1.166164790194e-07 6.197474137966e-07 -3.842488734158e-07 -5.706122289416e-07 -1.976592183420e-07 1.022216996169e-06 9.480343428917e-07 9.185707184817e-07 1.114354565354e-06 5.658044586295e-07 9.782381690967e-07 3.667195198397e-07 -1.644866300137e-07 2.378228071440e-07 4.727410237887e-07 -4.479337111677e-07 -4.881301537297e-07 2.138034463742e-07 -2.813745573927e-07 8.251805157953e-07 -8.519556533510e-07 -1.197729048687e-08 4.452656482038e-07 -1.527058429270e-07 3.238500690693e-08 -1.013706427483e-07 -1.576877117582e-07 -1.372355340257e-07 -1.493093103637e-07 -2.365527877273e-07 -3.074478635847e-07 -1.415768096706e-07 -2.328474788999e-07 -8.196718217641e-08 -2.799453251878e-08 -3.140706313560e-08 -2.990499685096e-08 -1.003053922088e-07 -2.185439002490e-07 -9.142334760814e-08 7.133709133227e-08 7.339877249493e-08 2.350103181266e-08 4.173497134593e-08 1.723908494254e-08 2.505044573802e-07 3.133172636769e-08 -1.725661912526e-08 2.014584864642e-07 3.622856111599e-08 2.702596652395e-07 2.773222626822e-07 1.248270464858e-07 1.072446956831e-07 1.742424387292e-07 3.296924112781e-07 3.568315357549e-07 2.793533234606e-07 2.540858908378e-07 3.267169525184e-07 1.667894068050e-07 -8.215447703418e-08 -9.263676475663e-08 7.692778632878e-08 3.221104438422e-07 3.498153038579e-07 3.477005121427e-07 -6.211679640151e-08 -2.112723952213e-08 -7.971103199853e-08 3.260603654578e-07 4.425535506016e-07 3.561984291952e-07 -5.332564378119e-08 -1.648672944432e-07 -1.454658163895e-07 1.648636731310e-07 2.271101171319e-07 2.874275073426e-07 2.490554943582e-07 3.007857693774e-07 3.640359142011e-07 2.928249284191e-07 3.181407056792e-07 4.453449246080e-07 1.943086519553e-07 1.521811769075e-07 6.519794960776e-08 -6.993660935681e-08 -2.329255701494e-08 -1.308153071450e-07 -1.805737074721e-07 -1.018594568853e-07 9.544895400988e-09 -5.689514842143e-08 2.647628527816e-07 3.168265360991e-07 2.210917805326e-07 2.327130352578e-07 -9.406666233151e-08 -1.656941967511e-07 2.255037631328e-07 1.857903565847e-07 -6.607659679342e-08 -2.076996085401e-08 -8.857888697635e-08 -4.818619162232e-08 1.869113560132e-07 2.734379873949e-07 1.597074510901e-07 -2.278092622450e-08 -7.479948570755e-08 4.498417312569e-08 2.793240954596e-08 2.137917594652e-07 -1.110442655462e-07 4.275936586394e-08 2.921690078721e-07 1.660101001415e-07 -1.024458219290e-07 1.279686184456e-07 2.082177011530e-07 3.640799016408e-08 -1.025163110901e-07 5.411623849898e-08 -6.197482646544e-08 -1.739198901527e-07 -1.595748438583e-07 -1.977544746426e-07 -3.068906705235e-07 -3.120250572887e-07 -3.255544458549e-07 -3.234708222238e-07 -3.220726962656e-07 -3.006549341381e-07 -2.101186353669e-07 -2.051170572299e-07 -2.552060851607e-07 4.226152687037e-08 -6.542179085209e-09 -2.938302612792e-07 -2.736586909298e-07 -2.442837289873e-07 -6.563377656807e-08 -3.273832554641e-08 5.409717736612e-08 -7.126292048341e-08 -7.094034825968e-08 4.881142391708e-08 4.489355409078e-08 3.519900292579e-08 1.428818307771e-07 1.034423063004e-07 7.267007336673e-08 5.938596042121e-08 1.999175274166e-07 1.045374324103e-07 1.243611678239e-07 4.424615828465e-07 5.586250715242e-07 6.518404793240e-07 -6.310842563672e-08 -8.009378919623e-08 6.406792393451e-09 3.275938865574e-07 3.192564468527e-07 4.096566946211e-07 -1.435695760181e-07 -1.828403483444e-07 -1.680871270169e-07 3.604801932702e-07 4.484399604139e-07 5.313463375775e-07 1.500817894267e-07 2.840283932583e-07 1.763528587985e-07 3.801838936400e-07 5.268675342831e-07 3.922705111124e-07 5.408561050952e-07 6.407788909744e-07 6.336826807772e-07 1.874332822668e-07 8.642426426285e-08 9.844807021065e-08 3.346829385025e-07 4.561638846757e-07 2.959374001516e-07 3.295385156208e-07 3.590835909075e-07 4.752761763923e-07 8.756194027338e-08 1.139053319703e-07 1.613392579898e-07 -5.413952075687e-08 -8.173904527354e-08 2.992678370822e-07 2.584261439862e-07 2.385673301272e-07 1.626504578253e-07 -8.504957843723e-08 5.360401664701e-08 9.276732873573e-08 -2.913800864197e-07 -2.851494629472e-07 -2.589160145256e-07 -2.514665363856e-07 -1.918115272060e-07 7.881091087228e-08 3.991719265010e-07 8.976355419307e-08 2.029559462531e-07 4.976862102808e-07 3.525556399860e-07 2.604216200436e-07 4.671269438121e-07 -1.324942707687e-07 1.392618793183e-07 -4.615457516489e-08 3.458140742065e-07 -9.316065310435e-08 -4.265814928747e-08 2.597055680012e-09 1.793073441906e-07 2.835654523873e-07 1.219032051628e-08 4.105687856805e-08 -2.936400260680e-07 -2.886792059001e-07 -3.222940171894e-07 -1.319763811584e-07 -1.904107064588e-07 -1.707918055669e-07 -2.899075146584e-07 -2.078724604715e-07 -2.620090170834e-07 6.947240868200e-08 1.397024375446e-08 -7.729275965930e-08 -3.447130953537e-07 -3.226469512352e-07 -3.157588157908e-07 -2.265623976523e-07 -1.879037383374e-07 -1.886398511485e-07 1.055261244153e-07 -2.531899945574e-08 1.042442042129e-07 3.075582174441e-07 1.881671211351e-07 2.522447463369e-07 1.708643938281e-07 8.267357862421e-08 7.965154608430e-08 2.373784018714e-07 2.000910063991e-07 1.725265803433e-07 2.023277419188e-07 3.347009586900e-07 3.020375417566e-07 6.316399879227e-07 6.777021057342e-07 4.482543174637e-07 -1.550880451247e-07 -1.326852325043e-07 3.497833337707e-08 1.194406701745e-07 1.592607996731e-07 1.688215801462e-07 -2.510178421921e-07 -2.501455883306e-07 -2.080595313345e-07 2.453694965357e-07 1.489463903543e-07 1.970917332732e-07 -1.496754148462e-07 1.403068127074e-08 -1.065711008987e-08 5.523419076784e-07 4.057791923728e-07 5.059937424499e-07 -2.045675283834e-09 -9.066855293107e-08 5.691657201079e-09 1.401239254447e-07 1.631123161051e-07 7.971828111604e-08 4.904868840143e-07 4.964089196476e-07 4.210395611293e-07 5.166771527500e-07 4.576033708192e-07 4.202456574451e-07 4.570354649401e-07 4.895811237190e-07 1.535886113678e-07 1.022999949345e-07 -1.467571243402e-07 -1.144167857164e-07 4.005405590090e-07 3.122525269088e-07 5.738780693045e-07 5.483083146135e-07 2.279290282137e-07 4.770150370109e-08 -4.218191885904e-08 -3.638559497105e-07 -8.798381389924e-08 -1.790910577084e-07 -2.558431284669e-07 -1.818841860849e-07 -3.023291942065e-07 2.771200259005e-07 1.629739448752e-07 1.913031663883e-08 2.520801977058e-07 1.592145133015e-07 1.776514955507e-07 -1.234911965480e-08 4.703460877494e-07 4.097885916761e-07 1.169461434965e-08 4.811930006445e-07 -7.357826158079e-08 6.978689362627e-07 5.147631006293e-07 1.437091750647e-07 2.426816903539e-08 -6.900415220378e-08 -5.462646938752e-08 -2.616420232681e-07 -2.559326684654e-07 -2.135898984652e-07 -2.825746152535e-07 -2.043818107229e-07 -2.176400672541e-07 -2.564041609694e-07 -2.183094272973e-07 -2.298078747482e-07 -1.903580407053e-07 -2.354994034108e-07 -2.218901328327e-07 -1.560459388353e-07 -2.400382592325e-07 -1.697753250738e-07 2.259922315723e-08 -9.559434202459e-08 3.259987250156e-08 7.121112283165e-08 9.500987337545e-08 3.767620509891e-08 6.875980007059e-08 1.176594216222e-07 1.682573487457e-07 1.902995571630e-07 2.486555283772e-07 2.547512626531e-07 1.396330326310e-07 2.365266790687e-07 2.076226515432e-07 2.848133715620e-07 3.127061172360e-07 1.584475914393e-07 5.247603336729e-07 3.596475006050e-07 3.771025425373e-07 6.338016033199e-07 5.800967626151e-07 5.730826913002e-07 2.898600638345e-07 2.109325666361e-07 1.227984205999e-07 4.402214399470e-08 2.441468531381e-08 -2.248852604870e-08 3.207813048100e-07 3.302779968532e-07 1.185690576956e-07 -2.544528142191e-07 -1.045002626331e-07 -1.689761743448e-07 2.972456559070e-07 2.347245894066e-07 3.316901880898e-07 4.653535345825e-07 3.215524437859e-07 3.189356047627e-07 5.506468379169e-07 4.360212901500e-07 4.410603987155e-07 7.877160620554e-08 5.846409509173e-08 -1.197326809681e-08 2.417603404444e-08 -2.252493046907e-08 -2.131935745165e-08 -3.436605302400e-07 -2.750602661832e-07 -8.689370757699e-08 4.839972401513e-07 3.552854343677e-07 -1.295453093519e-07 -4.279215663777e-09 1.730143850758e-07 2.341016185741e-07 2.193943862406e-07 2.107799834542e-07 -2.869004584575e-08 -1.843395977369e-07 -2.428763327862e-07 -2.128269396141e-07 -2.653740134818e-07 2.129351625921e-07 2.538557422887e-07 2.624621765750e-07 -9.235575436632e-09 6.440965993176e-07 1.135229177234e-07 3.690350370893e-07 6.813343092173e-08 3.513149945846e-07 5.231606914507e-09 5.437971016718e-07 8.722884833204e-08 -3.273678469241e-07 4.273400256049e-07 3.729594126411e-08 2.380211288502e-07 -3.942460834707e-08 -2.262054159509e-07 -1.010620729737e-07 -2.217011739275e-07 -1.717460580487e-07 -1.853174393885e-07 -1.477695906732e-07 -9.649271896538e-08 -1.189141334063e-07 -2.112179939323e-07 -1.678903247479e-07 -2.356730991555e-07 -2.384592858501e-07 -3.102177786964e-07 -2.785155763510e-07 -2.161319163994e-07 -2.488159040487e-07 -2.299096147754e-07 -9.893095122903e-08 -2.523744097281e-07 -9.870118242960e-08 1.036790667773e-07 4.642779481778e-08 2.498081892989e-07 2.457474432264e-07 2.310290827572e-07 2.455411561303e-07 1.399072350888e-07 2.288316124555e-07 1.473533239224e-07 3.318792125948e-07 2.090227520037e-07 2.146136122062e-07 2.913458640827e-07 1.041893868560e-07 2.104591000440e-07 3.544693732637e-07 5.395961779653e-08 -7.042742734669e-08 5.703322719703e-08 -1.347548858968e-07 -8.971435550898e-08 -7.581353190549e-08 -4.597742478652e-08 -8.384410464980e-08 1.372450287794e-07 4.160889132631e-08 -7.787858322582e-09 2.514292829870e-08 -1.121306446410e-07 -1.272016244061e-07 -5.570222215739e-08 -1.137431597958e-07 -1.215494131257e-07 3.780910089664e-07 2.722439566520e-07 3.711834622142e-07 4.272512684968e-07 3.882633349272e-07 3.789505039142e-07 -2.167234782449e-07 -2.038558092420e-07 -9.475384329393e-08 1.370212517341e-07 -8.944065139031e-08 2.966873208983e-07 2.366346281132e-07 3.257237663406e-08 3.341133076466e-08 -1.857062803036e-08 -1.800220234116e-07 2.112508650720e-07 4.727874697866e-08 7.659515449088e-09 -2.090695463919e-07 1.584537562175e-07 1.915432216995e-07 1.912921006601e-07 2.550664641657e-07 -7.520361237625e-08 -6.157606586844e-08 2.628155217206e-07 2.775330520083e-07 -2.065074303281e-07 -2.127701379738e-07 -2.543436774544e-07 -2.541576777905e-07 -1.089430655267e-07 3.055420405793e-07 4.204794582166e-07 3.970956506788e-07 -2.164096536234e-07 6.208782692257e-08 2.409867020535e-07 -5.740257952768e-08 3.400675422155e-07 2.434994053290e-07 -1.569292702226e-08 -8.732097249719e-08 1.978930776092e-07 3.203094467524e-07 2.432558966653e-07 -8.119222371421e-08 -3.087432821199e-08 -2.489457762696e-08 -5.443920975209e-09 -1.129597462382e-08 -2.217818162805e-07 -9.183400268224e-08 -1.561052925866e-07 -1.864021923732e-07 -2.099002234706e-07 -1.304194157848e-07 -3.320205083702e-07 -2.565497849434e-07 -2.362216239645e-07 -3.025788666690e-07 -1.692246458731e-07 -2.127157503230e-07 -1.945274677508e-07 4.015130307504e-08 -2.064254609951e-07 1.987155229714e-07 2.816921043046e-07 2.716938424152e-07 3.239077841567e-07 2.262572382536e-07 2.998326312138e-07 -3.561383584873e-07 -4.327277440658e-07 -4.092519587857e-07 3.934908991321e-07 5.295578015990e-07 2.437594430969e-07 2.559924559324e-07 2.986102934766e-07 4.269697988431e-07 -2.359917749686e-07 -4.896886653433e-07 -4.071183881144e-07 -2.198169993236e-07 -3.376628464815e-07 -5.350427445716e-07 -3.101170381287e-07 -3.296443364494e-07 -4.033978974710e-07 -6.860741046583e-08 -3.500371310316e-08 -8.926854536217e-08 2.483299302536e-08 5.094286398193e-08 2.163598543133e-07 2.659081825763e-07 1.079171677531e-07 1.611981737157e-07 2.299908025445e-07 8.377899005226e-08 2.441890175937e-07 -6.045624505181e-08 -2.350895740653e-07 -1.683625439028e-07 -3.045771873912e-07 -3.673454572157e-07 -3.119673835630e-07 -1.825422829018e-07 -2.284501663390e-07 -3.037951517584e-07 -1.774271843305e-07 -1.184576571004e-07 -8.765034423855e-08 -6.196135705350e-08 -3.428479698381e-07 -2.040374120043e-07 -4.841231808857e-07 2.345716943614e-07 2.009946525233e-07 -3.049787647396e-07 -4.200448025196e-07 3.598621023928e-07 2.804682015205e-07 -2.433112270066e-07 -8.501265951452e-08 -1.481631952842e-07 -1.290538108282e-07 -2.128297220429e-07 -2.614995259455e-07 -4.359209114417e-08 -2.287945199995e-08 2.654613346661e-07 1.383613421429e-07 -3.246515370683e-07 -2.175811309351e-07 -2.183202673904e-07 3.504127035473e-07 4.030670422787e-07 1.072825748761e-07 -5.263337134699e-08 1.839703950077e-07 -3.300323717351e-07 -4.973224210766e-08 3.298661842021e-07 -3.641123583101e-07 -1.359084220532e-07 -2.123737644101e-07 -7.870234357218e-08 4.564227471902e-09 -5.803291148320e-08 -3.425002740651e-08 -2.361942133271e-07 -1.339490224152e-07 -1.492405023375e-07 -1.549075813585e-07 -8.492910214504e-08 -1.969724418010e-08 -1.223882153707e-07 -7.621792810546e-08 -6.534296991710e-08 -1.171777577667e-07 -4.921319609064e-10 -5.675255069523e-08 -5.091789351180e-08 -2.459762753817e-07 4.921967492142e-08 1.129546288966e-07 -5.909135805315e-09 2.162072713260e-07 5.162187979485e-07 2.844430453367e-07 3.532248504561e-07 1.374848965606e-07 3.000191567092e-07 1.796901176893e-07 2.026965590538e-07 1.636007797482e-07 9.718252288391e-08 -4.289371334652e-07 -4.172446334975e-07 -6.734820972107e-07 -5.708803856324e-07 -5.978153094861e-07 -5.131461949361e-07 -4.912833257502e-07 -4.610365605605e-07 -4.591056588190e-07 -4.990675078087e-07 -5.091898967958e-07 -3.682308120984e-07 -4.149952701639e-07 -2.479537641363e-07 -2.445200475818e-07 -5.778080457798e-08 -1.150389717255e-07 -8.593737677272e-08 2.178548003582e-07 2.791890060373e-07 2.648010542863e-07 4.959750670866e-08 -1.803736159795e-08 2.413005288482e-08 7.491985009641e-08 6.117737594058e-08 -1.747528376049e-07 -5.181565374612e-07 -3.686813577889e-07 -3.577955867094e-07 -2.694732477167e-07 -2.375303155104e-07 -2.365116668162e-07 -8.446667169593e-08 -1.748393845164e-07 -1.469713868697e-07 -1.862554163694e-07 -2.172993009143e-07 3.369627572188e-07 1.592791679772e-07 3.694750105380e-08 6.015858325426e-08 -1.918913681633e-07 -6.023612356184e-07 -5.124000301611e-07 -1.657338597160e-07 -1.357934925029e-07 -4.651282796948e-07 -4.203655011851e-07 2.997785234025e-08 -1.028006538134e-07 -2.008898164234e-07 1.279276645665e-08 2.615663833420e-07 1.388599829387e-07 -5.688976317348e-07 3.723191886451e-07 -3.702123138941e-07 -4.256935119489e-07 -4.213955653660e-07 1.542955137118e-07 2.755504300401e-07 -1.597455332605e-07 1.870378985461e-07 -6.241438823698e-07 -5.968667155823e-08 -5.247656901979e-07 -1.518020549521e-07 1.845628899499e-07 9.554771944019e-08 8.572136535812e-08 -5.091842178699e-08 -1.066580554883e-08 4.348985763472e-08 -4.172893924142e-08 6.469529493969e-08 1.317244625676e-08 -2.962647833341e-08 -1.586351524844e-08 -7.018232705283e-08 1.055871632585e-08 2.750331057095e-08 -9.999129310947e-09 -4.184207239169e-08 7.189356521203e-08 7.179497591110e-08 -7.764181065178e-08 -6.397948117089e-08 -3.495524264616e-08 1.033636269747e-07 6.098426893350e-08 3.668230038188e-08 -4.146386757691e-07 -1.990458910586e-07 -7.951044069938e-08 -3.682769571456e-07 -3.631068567817e-07 -1.489779944874e-07 1.650398217293e-07 1.059007010634e-07 1.213981722973e-07 -2.607088282682e-07 -2.189035990624e-07 -1.745195208188e-07 -1.465663081778e-07 -2.044831374107e-07 -2.307340351434e-07 -4.184065547219e-07 -3.280923139804e-07 -2.466461477202e-07 -1.095625102147e-07 -1.022033885710e-07 1.142859571391e-08 1.639782312700e-07 5.967502670008e-08 1.210925632825e-07 6.217956449782e-08 9.419120464896e-09 3.181856247220e-07 1.276608475826e-07 -2.612354282102e-08 1.331466204707e-07 -2.408652412472e-09 4.565721360716e-08 -1.270702095498e-07 -2.260229146050e-07 -1.990177063058e-07 -1.399215953605e-07 -3.227289879648e-08 5.068600199510e-08 -6.025562797783e-08 -1.055354216338e-07 -2.933095578872e-08 7.597195026114e-08 7.553269508251e-08 1.018884852957e-07 1.297604039035e-07 1.749271599856e-07 2.222258298116e-07 4.825954048368e-08 9.939970518021e-08 7.992445672637e-08 -2.963992642792e-07 -2.436215956534e-07 -2.945450340495e-07 -2.802380580018e-07 -1.284412357900e-08 3.493349867969e-08 -2.807218330630e-08 1.580526508560e-08 -5.645288424400e-08 -8.383774237492e-08 -2.625371276838e-08 -6.088084563726e-08 1.695565616521e-07 1.866106647936e-07 7.203913819865e-08 -4.274252299586e-08 -2.785370600922e-07 -3.309227790682e-07 -1.285554184398e-07 -1.550495979160e-07 -2.084715009990e-07 2.790227989146e-07 -1.370748216734e-07 6.688112385848e-08 1.156553117110e-07 1.000657109257e-07 -2.077358184282e-07 -2.563069296346e-07 6.475604828681e-08 -9.233937956824e-08 5.425060022057e-07 -2.574499602330e-08 1.478487827242e-07 -2.189296966913e-07 6.805061518042e-08 -3.175240847645e-08 1.045228335296e-07 -1.261974698381e-07 4.867381252934e-08 5.306415874652e-07 1.622666616064e-08 -1.206324713320e-07 7.727604109790e-08 -2.109604403689e-07 1.638586047594e-07 7.537782148247e-07 -4.133368810295e-08 -6.700761463736e-08 -3.046399056605e-08 -8.581444529335e-08 5.340131600088e-07 -1.379364498910e-07 -9.156561314481e-08 1.424461625080e-07 1.140393469591e-07 -3.059948394477e-08 2.487313750355e-07 8.043735883859e-08 9.124514658893e-08 4.965030049062e-07 3.297482503916e-07 -1.852003472230e-07 -8.503033964774e-08 -1.574955033341e-07 -6.541347331404e-08 -2.356285156650e-07 -2.906784806540e-07 -1.125554973751e-07 1.214102298469e-07 2.756822801413e-07 1.293770388751e-07 3.297016208283e-07 7.228938623808e-08 -4.515281767994e-08 7.635679838814e-08 2.389541743937e-08 1.147395382273e-07 1.006531772803e-07 1.041403960467e-07 1.653300604012e-07 -1.196430602234e-07 -9.145503858020e-08 -1.514666712506e-07 -2.063131822621e-09 6.277539503567e-07 -3.108552455995e-08 2.031280689618e-07 -2.890112847144e-07 1.059819420027e-07 3.515455864140e-07 1.960499735755e-07 1.753511571639e-08 -2.285529666290e-08 -2.842030825091e-08 3.750888965884e-07 4.386603577163e-07 2.091607931525e-07 2.964930343583e-08 5.765474998068e-08 -9.779030711098e-08 8.685797131397e-08 5.680757253073e-08 9.208446510389e-08 4.528681097036e-08 -6.105386951436e-08 -2.713103315513e-07 -2.663496803568e-07 -4.497584496154e-07 -1.806757069787e-07 1.378260129139e-07 5.055731363294e-09 -2.389678441359e-07 -2.014175067681e-07 -5.393644057386e-08 -1.999173699388e-07 -1.368188868859e-07 -2.637907818085e-08 -1.587488805200e-08 5.025260784198e-08 1.334887364846e-07 1.439467929079e-07 2.175289643518e-07 1.659862636544e-07 1.527471573905e-07 2.361901468372e-07 2.305402279396e-07 3.849582554131e-08 1.040278298150e-07 -1.719122053883e-08 -2.024796428715e-07 -9.087381235627e-08 -2.112123016771e-07 -2.316318714600e-08 -1.050008078045e-08 3.094243136381e-08 -4.360620784870e-08 -1.394298572722e-07 2.019326662521e-07 3.146937660323e-07 3.492112705720e-07 3.168195222672e-07 2.249078817607e-07 2.491424162273e-07 1.799101128815e-07 1.464249852226e-07 1.541224722449e-07 2.112350885698e-08 1.489602581538e-08 1.697946127293e-07 2.711148696703e-08 -1.274509838814e-07 -1.461713797044e-07 -8.461694166747e-08 6.306832960526e-08 -7.987132081421e-08 -1.226485662701e-07 -1.092713963587e-07 -1.779332618523e-07 -1.486655620613e-07 -1.767155162549e-07 -1.911046640152e-07 -1.577064347968e-07 -1.662683729119e-07 -1.373748205225e-07 -1.635684210050e-07 -1.663134942199e-07 2.078545321263e-07 2.366282097464e-07 1.056163055588e-07 2.322780941212e-07 -2.177097340380e-08 7.166554670526e-08 -1.718187412092e-08 3.268161782518e-08 4.606390825503e-07 4.811452246919e-07 5.215718963798e-07 4.891688685093e-07 2.509924233262e-07 2.325901908043e-07 1.866470547746e-07 1.577319448136e-07 5.989066550145e-07 4.664433049110e-07 2.657156380908e-07 -1.271191995168e-07 -6.364838501872e-08 5.759824465743e-07 5.903797900759e-07 6.381928792561e-07 1.456285876588e-08 5.405924611637e-08 7.214129656455e-08 1.324426100937e-07 -1.749142208111e-07 2.402047626587e-09 -1.305987613650e-07 -1.629787620132e-07 -1.071082390680e-07 -1.005489895005e-07 -3.851251938441e-08 9.429107875379e-08 7.894736724416e-08 4.690933016404e-08 2.642966763802e-08 2.810473288390e-08 -5.725154042423e-08 -1.965403298683e-08 3.887270016220e-08 1.813833812673e-08 1.060439017983e-07 7.491408981237e-08 6.146762411518e-08 4.066639087689e-08 6.984057208107e-07 4.407616642125e-07 8.650892496140e-07 6.970871618404e-07 5.267577914560e-07 -3.223108569666e-08 -6.574326989701e-08 1.424594565458e-07 1.540115131405e-07 8.516062424696e-08 3.392944069705e-08 1.210545231898e-07 2.235245727215e-08 8.917435220474e-08 1.723601773299e-07 -4.771479342390e-08 5.051412314669e-08 1.685377367472e-08 -1.066923279576e-07 -1.481678196074e-07 -2.044529131276e-07 2.669692887214e-07 3.642689720909e-07 1.347621179717e-07 -1.829512089367e-08 -1.704582777902e-08 2.803540163289e-07 7.658982589435e-09 2.518208265974e-07 2.764890808756e-07 1.219190638845e-07 -4.765517474841e-08 9.319227137029e-08 -1.179778318155e-07 3.762740026979e-07 -4.850774879002e-08 -9.365652777888e-08 -1.335276589464e-07 9.540560639039e-08 1.241044023232e-07 4.689781208388e-08 2.798111843825e-08 9.030357010486e-08 -4.738041089277e-08 4.190398808639e-08 -1.704180144135e-07 2.030811428515e-07 1.292585811953e-07 1.570277583940e-07 8.898091318884e-08 2.884918350302e-08 1.002410718179e-07 -1.648114106433e-07 1.497144188294e-07 2.681443012046e-08 -9.685620779690e-08 -4.027931298241e-08 -7.983915709703e-08 1.534258285491e-07 1.402408579382e-07 5.350857110496e-08 1.880317460725e-07 1.287211369082e-07 -2.744488817564e-07 -7.692650397590e-08 -7.304750521773e-09 -2.453745358419e-07 -3.218938646402e-07 4.483475059146e-07 5.157193347066e-07 4.314678641329e-07 5.101532705669e-09 9.414252584792e-08 3.566144938129e-07 5.690497051934e-08 5.465831287389e-07 7.476996317186e-07 7.098414257147e-07 1.965156123905e-07 3.242020838030e-07 2.577319124471e-07 1.532370464493e-07 7.582175522452e-08 9.253901429838e-08 8.527195070288e-09 1.723921529561e-08 1.361653982056e-07 9.608142316215e-09 1.105180882374e-07 3.279092515449e-07 5.757964886861e-07 1.597543458364e-07 8.793093449473e-08 1.872464674347e-07 1.923934456170e-07 5.448599821856e-07 -1.742776130092e-07 -1.103283347075e-07 1.172074434295e-07 4.363530862680e-08 -3.432931867489e-07 -5.190495579139e-07 -1.352376748246e-07 -1.433319584977e-07 1.260166874815e-08 5.634395703358e-08 1.562030211944e-07 3.345057664203e-08 1.902264806242e-07 1.859996876199e-07 -5.296788392144e-08 -9.481192262474e-08 8.563943466303e-08 1.817447354416e-07 4.270370327718e-07 4.018765451545e-07 3.748226452690e-07 1.679283815482e-07 1.864396272854e-07 -2.967924881411e-07 -3.376799515837e-09 -2.119981836687e-07 -2.433646884122e-07 -5.331633905737e-08 2.237974331247e-07 1.240621372105e-07 2.180440439942e-07 8.000237177646e-08 1.102827298093e-07 1.109825652067e-07 3.706016245033e-08 3.901317859401e-08 3.023145836849e-09 1.961276435576e-07 2.985683089290e-07 2.247196156946e-07 6.964931541721e-08 -1.054663262234e-08 5.504069325170e-08 8.033472083829e-08 3.990095342918e-08 1.952831253297e-07 2.229838474123e-07 -1.211332135039e-07 -1.780765816479e-08 7.672249691566e-08 1.463131779751e-08 2.330162057675e-08 1.073955795366e-07 1.212801445661e-08 3.900853915623e-08 2.800431123786e-07 -2.807701003451e-09 -1.273365004963e-08 6.858864106301e-08 8.186202037867e-08 6.561518676102e-08 1.683001661378e-07 5.057675897744e-07 8.311504687956e-08 1.874260944485e-07 5.094351536295e-08 1.359407195407e-07 8.103841849013e-08 -2.803829803741e-08 1.076546443689e-07 3.716798553999e-07 2.794579856315e-07 2.665738056946e-07 3.532963453374e-07 6.957623468405e-08 1.132768935236e-07 2.062516732368e-07 -8.427815438800e-08 -4.130225906377e-08 -1.272765839228e-07 5.262343510297e-07 1.015574051067e-07 -1.649843412327e-07 -1.604678000755e-08 1.781814664625e-07 2.211497520195e-07 1.286699231390e-07 -5.036339602722e-08 4.048321279469e-08 4.014233501175e-08 9.677342221952e-08 2.753901082681e-07 3.636423009222e-08 -1.104723512267e-07 -2.850453046676e-08 1.314740978791e-07 2.751620877885e-07 -4.744832999653e-08 4.284486939022e-08 2.074172533615e-07 4.554811409323e-08 -1.042924836895e-07 3.911276291383e-07 5.863560395549e-07 6.023452681259e-08 4.138330317894e-07 -1.473216993239e-07 1.741236710718e-07 3.284588810267e-07 5.977141568305e-07 -2.424879726046e-07 -8.658142319721e-08 1.533197349037e-08 -8.506092555354e-09 1.715046410984e-08 1.436510860699e-07 6.438650624374e-08 1.031997159559e-08 1.303157611646e-07 1.587403350460e-07 2.919351312261e-08 6.051188202493e-08 -1.354353666053e-09 3.601801749481e-08 9.098419310944e-08 6.838806003493e-08 -2.169343469031e-07 2.318899516410e-08 5.018185638177e-08 -1.623068427273e-07 2.071630970442e-07 -4.764233244433e-08 -1.020501114469e-07 2.197948417948e-07 4.099897147597e-08 7.747195030843e-08 1.778410805372e-08 1.441117244583e-07 3.547120139124e-07 -3.968193646994e-08 1.572468802249e-07 8.066187236929e-08 1.132734241927e-07 1.785106051065e-07 5.656085806602e-08 8.144014955262e-08 5.455288509032e-08 2.184504935772e-07 -2.620937356989e-07 -7.261837334395e-08 5.243744598332e-07 -1.617648442748e-07 -1.008443797366e-07 4.091919496828e-07 4.319777667472e-08 -9.087745412743e-08 7.573401859158e-08 9.079027897778e-08 1.638212214239e-07 1.445728143561e-07 1.816609273004e-07 -3.481234538085e-08 -5.517643169952e-08 -1.451571299966e-07 -1.886282327066e-08 6.122974229792e-08 -3.076147361218e-08 5.783718248922e-08 4.050122030123e-08 -4.068757348880e-08 1.376365144658e-07 3.028493594142e-07 -1.464898893628e-07 -2.253883170900e-08 2.138024062819e-07 -2.203848958406e-07 -1.688436137936e-07 -1.152654538768e-08 -1.296586933761e-07 9.033120962636e-08 -6.878087293815e-08 1.176697003557e-07 -4.783185936426e-08 -7.008394159095e-08 -6.487955380273e-08 1.697937416120e-07 9.961430856369e-08 8.261603293748e-08 1.123139279948e-07 1.406295051669e-08 -4.754453700155e-07 1.316171114571e-07 -7.965829011865e-08 9.503629848673e-08 1.460961107408e-07 -4.324469521793e-08 6.214926841504e-08 -8.700591548754e-08 5.993492018061e-08 -2.347848675963e-07 2.694338564579e-08 -1.909236800274e-07 1.038894958753e-07 -3.436126144347e-08 -8.693699552154e-08 1.548070818504e-07 -2.373200924431e-07 -1.377933691850e-07 1.722707146066e-07 5.032350265443e-08 -1.259542780849e-07 1.389473263983e-07 -7.521247829217e-08 -2.058498429306e-07 3.885406729260e-07 4.747606038993e-07 2.749921359640e-07 -9.344601573238e-08 3.256433409185e-07 -9.807776525838e-09 3.429727323237e-07 6.247612222682e-08 2.601392051379e-07 4.525548026935e-07 1.249205679165e-07 -1.328084510688e-07 3.746189563070e-08 6.847984607314e-07 6.397788094038e-07 -2.740141575218e-08 3.306507237679e-07 -2.210769825054e-07 7.064932195915e-07 3.108104719844e-08 9.718337563290e-07 -2.548051242301e-07 2.318391885622e-07 4.315834210505e-08 6.219004305876e-07 -2.848359335567e-07 7.841370694910e-07 2.925537155280e-07 -3.895255061166e-08 4.105342453641e-07 4.874036923244e-07 3.948468817075e-07 4.120136144429e-07 -4.950972063229e-07 9.086595890010e-07 4.074395522826e-07 2.939889257949e-08 -5.162714806587e-08 1.069397583829e-07 1.073862264247e-08 8.579345790712e-07 -2.450905794648e-07 9.792500265548e-07 1.313934009452e-08 -4.500343422941e-07 3.966589106722e-08 1.191332788723e-07 2.243517191563e-07 -3.113772669489e-07 2.252747563056e-07 1.951135143674e-07 -3.031837438409e-07 -1.310347473483e-07 1.058993255381e-06 -3.317052197321e-07 -1.970587180151e-07 6.314292992131e-07 6.262610535172e-08 2.052521894097e-07 5.808684815960e-07 9.405677383715e-07 -1.650504566023e-07 4.984164214839e-07 1.766289338189e-07 4.714278145719e-07 5.531192414235e-07 -5.765236375831e-07 1.928569777785e-09 6.944674854285e-08 4.130792723578e-07 -1.630070680674e-07 6.465254815587e-07 8.698397533849e-07 4.585299450050e-07 1.310462984446e-07 1.199680586816e-07 6.520371512616e-07 -5.455708465404e-08 1.887793345665e-08 2.901310195120e-07 -5.530744580922e-07 1.212299511377e-06 -8.456690379176e-08 -3.152648075577e-08 -4.508648952100e-08 5.085073673237e-07 3.376167152523e-07 -3.826453323558e-07 -7.945205358577e-08 2.428982747545e-07 5.980464792934e-07 3.610127940836e-08 8.633961718748e-07 7.467127591126e-08 1.240785652775e-07 -7.388952811869e-08 1.075162692180e-07 -8.845988596674e-08 4.794720859566e-07 -1.815061614111e-07 7.931899473080e-07 5.870799602626e-07 1.227099203765e-07 -9.153587463949e-09 8.965220027193e-07 -1.643609874575e-07 7.161422477189e-07 1.106089467420e-07 4.102836369009e-07 4.761690199234e-07 -1.800924175892e-07 -7.373776436825e-10 1.151497101775e-06 2.182070641110e-07 7.778001199451e-07 5.488456458771e-07 8.091098607194e-08 -5.311636389881e-08 1.400230407893e-08 -2.273899968841e-07 -2.806315253240e-07 -1.214750389348e-07 1.852626478100e-08 4.546703734241e-08 -1.355827887410e-07 4.246661368070e-07 -9.275606228322e-08 4.968193930574e-07 7.690787487081e-08 -1.497229809084e-07 -3.009915761483e-09 3.895698941158e-08 -2.114601481564e-08 4.726767914473e-07 1.464345914162e-07 2.108127864678e-07 -2.158964330861e-07 -1.028865090618e-07 -4.515930447799e-07 8.513791644827e-07 -3.643905275079e-08 1.075684402205e-07 5.166170893591e-07 9.160885278280e-07 1.170191969186e-06 3.022909938951e-07 5.563648972626e-08 2.494536548978e-07 -5.104011260062e-07 1.074320887820e-06 2.227165152218e-07 5.442464837434e-08 6.869974651695e-07 1.093783808218e-07 -1.648561919435e-08 -6.333885028890e-07 5.839688140909e-07 -1.448104075090e-07 2.224378992110e-07 5.991059571467e-07 2.902557677741e-07 4.882544682058e-07 -3.705788637115e-07 2.374358975337e-07 -7.276866657758e-07 1.169010278900e-06 -1.153943811489e-07 -3.174653763039e-07 8.470592377052e-07 1.702336004296e-07 3.759863208830e-07 1.338569642760e-07 -1.290361447129e-07 7.467031448831e-07 -1.107121791073e-08 -2.357799896572e-07 -3.345647020790e-07 3.329362198116e-07 3.593889912975e-07 7.431770657540e-07 2.695186808843e-07 7.209876538170e-07 2.688371047857e-07 7.248858264621e-07 1.003480842521e-06 -4.913512137795e-07 -4.661767108439e-08 1.219690567904e-06 1.738125585801e-07 -1.937296226801e-07 -1.043151240051e-07 7.334618990821e-08 1.893125362930e-07 8.971120780141e-08 3.693577650974e-08 1.393387069001e-07 -2.054718990043e-07 9.634799914360e-07 6.189759027876e-07 1.503575341115e-07 9.092271603494e-08 2.504938423046e-07 -6.643553556117e-08 1.410882987594e-06 1.381265200319e-06 7.680575526104e-07 2.129909856914e-07 -3.238823324117e-07 -7.473528643368e-08 5.385306963240e-07 3.206484914580e-07 7.146359932611e-08 1.363209054281e-07 -3.518220709818e-07 3.601455788650e-07 4.017960336947e-07 -8.281422420576e-08 1.198959453271e-07 6.728484736741e-07 1.545591510441e-07 5.540704078336e-07 -1.538116385220e-07 5.142477317270e-08 2.193177587126e-07 5.147316351036e-07 -1.490851465947e-08 -5.834395402465e-09 1.977137971466e-07 4.069634873189e-07 -1.623818639361e-07 -3.661577248382e-07 5.566401706273e-07 1.659525123009e-08 7.081262532878e-07 3.821070132875e-07 6.095358393097e-07 -3.209198956062e-07 1.322853193800e-06 1.629420211271e-08 1.015821585349e-06 1.831292675216e-07 2.438404132494e-07 -1.445110809277e-07 1.965486459721e-07 7.006717725361e-07 6.250191302009e-07 2.665757126765e-07 1.052280228390e-06 7.549402328669e-08 1.327031426465e-07 2.038965095316e-07 2.367736895884e-07 3.458181862450e-07 3.821934150006e-07 5.524029135914e-07 2.366611389854e-07 1.643591120501e-08 3.360396200332e-07 1.704668639534e-07 5.432720965773e-07 4.380277522448e-08 5.828011823035e-07 6.666205155547e-08 
        </DataArray>
        <DataArray type="Float64" Name="STRESS_YZ" format="ascii">
          1.188203811072e-08 1.844782662189e-08 5.834312453701e-08 -1.615718530226e-08 1.126703191216e-07 1.147794043749e-07 1.954471892748e-07 1.734057982675e-07 1.042818485588e-07 -1.810617612038e-07 -6.380186858417e-08 -2.138504194586e-08 -5.170780514945e-08 4.666555907424e-08 1.865922196605e-08 8.832654215812e-08 -1.224326501568e-08 8.479228292614e-08 1.174711928626e-08 1.657701286232e-07 8.544531334885e-09 7.802348900067e-09 -1.684285990592e-08 4.177346750318e-08 8.377285088024e-08 -1.886384333549e-08 -1.803459135947e-08 2.156896757387e-07 1.812164139451e-07 -3.974236829127e-08 4.176943669341e-08 1.828628728141e-10 9.239713622357e-08 1.952534540523e-08 9.583984374430e-08 1.661214739872e-09 1.225641071062e-07 1.059042490177e-07 3.053189006151e-08 6.117643606795e-08 8.251531598130e-08 4.077023983175e-08 -1.968575365041e-08 -8.076735102587e-08 9.670321124800e-08 -2.189930662025e-08 -2.220049966567e-08 5.553363003660e-08 7.811865630460e-08 8.907768806208e-08 -3.473545129413e-08 1.464806480822e-07 9.264661830846e-08 -1.228483709880e-08 2.268211316306e-07 3.771116191351e-08 1.375507582240e-07 -1.299167375353e-07 1.816790579376e-08 1.044171501201e-07 -6.207295812491e-08 2.528304845428e-07 9.935651563336e-08 1.065839765686e-07 -4.953411256668e-10 1.342210749176e-07 1.626237927263e-07 2.423978574841e-09 6.938480308578e-08 -9.074838105976e-08 -1.172517167048e-07 2.628352652599e-09 -1.261198970001e-07 -6.927268115212e-08 6.874198109668e-08 1.303310399863e-07 1.193848007398e-07 1.297402971426e-07 7.542881957389e-08 1.143176565696e-08 -2.342020300984e-08 -5.363595768781e-08 6.028640950055e-08 2.536990020218e-07 1.609946060263e-07 8.371628193689e-08 3.375371610709e-08 -6.058856063319e-08 -1.183981572639e-07 3.598705765003e-08 1.613262235670e-07 -3.814518547885e-08 6.456306823162e-08 1.934025856132e-09 3.087708908557e-08 -1.381975945161e-07 -7.683287797586e-09 1.649491804126e-09 9.261506966729e-08 1.399444663273e-07 1.608476868880e-07 3.152945708560e-08 -3.745640220275e-08 2.714144678682e-07 3.728776893511e-07 5.884848919872e-09 7.853906405216e-09 -3.370507888103e-09 -1.094453948864e-07 4.498916401503e-09 -4.101222483283e-09 -2.762379350402e-09 -2.129312434888e-07 -3.422453287429e-08 -1.831324143882e-07 -3.142563849780e-07 -1.649218090407e-07 -6.119058500638e-08 3.024251394233e-08 4.187292190704e-08 1.052613464677e-07 -8.913473079909e-09 -2.868319461144e-08 -6.154121721008e-08 -2.633949850101e-07 -1.416526288853e-07 -2.726733635057e-07 -1.744637449342e-07 -3.688060773734e-07 -1.382857329818e-08 -2.657721135322e-10 8.098446918838e-09 -3.475857023074e-07 -2.184731222263e-07 -1.211785509190e-07 -2.099349638982e-07 -3.777112290104e-07 -2.825591129652e-07 7.683171261007e-09 3.426780551556e-08 1.175098593823e-08 8.848413952239e-08 1.885085192536e-08 1.327044101200e-07 -3.011223279211e-07 -2.454179720199e-07 -2.768967633410e-07 2.490981926263e-08 4.133067672412e-08 -5.744201669958e-08 -9.979474198746e-09 4.437786802524e-09 -5.925874269312e-08 -1.496865502034e-07 -2.015340937206e-07 -1.123809471437e-07 -1.067691659702e-07 -1.637659515151e-07 -9.869963676248e-08 -1.248976093178e-07 -2.684225520094e-07 7.356218173435e-09 -3.036475706139e-08 -4.230868066221e-07 -2.521419710565e-07 -5.617585759516e-07 4.442786561386e-08 1.048585057104e-07 9.748032353371e-08 5.635788147349e-08 -4.942179491854e-07 -5.438122908971e-07 4.158633127607e-08 9.807875334142e-09 -2.335431864803e-07 -2.235448651248e-07 -1.127760146364e-07 -2.107256202974e-07 6.615580902809e-08 4.528341081018e-08 7.231461994728e-08 1.162138420859e-08 2.839534005244e-09 -9.975277762658e-08 -7.792923391531e-08 -3.082246967616e-07 -1.954616921105e-07 3.801144298556e-09 1.229626840551e-08 -1.428121356204e-07 -2.306370954067e-07 -4.408155735635e-08 -5.127252171775e-07 -5.585560773994e-07 5.302631057548e-08 1.509633445179e-08 7.341782863087e-08 7.067908563045e-09 -9.202924522609e-08 -3.116856083121e-07 1.324645684803e-08 -7.977180848652e-08 -2.324544620654e-08 3.151150978665e-11 -4.403245854815e-08 -2.976039218262e-08 -5.914668459811e-08 -3.435147159104e-07 -5.076233386786e-07 -2.755443418347e-08 -1.018681969239e-08 -1.733413395749e-07 -3.159695121628e-08 -4.977570339656e-08 -9.751206559506e-08 -1.027106123225e-07 6.487313144930e-08 -1.897321026084e-07 2.839636877091e-08 1.538459090448e-08 -1.709431651036e-08 -1.855711452522e-08 -1.200530214665e-07 -2.651559009498e-07 -2.009052022357e-07 1.113530503815e-07 1.883556757288e-07 1.868357682108e-07 2.069030836072e-07 -7.693309490093e-08 2.652715585172e-07 -2.618104831567e-07 -2.736417370033e-07 -2.782442909085e-07 8.813321333765e-08 -2.233080807607e-08 8.013219322642e-08 2.498618385943e-08 3.631046262721e-08 -1.288545326260e-07 9.286347159770e-08 8.048961391391e-08 6.097369635512e-08 3.221234301471e-08 5.505395914625e-08 -4.818749888519e-08 -1.613272586767e-07 -5.184762066461e-08 -1.328524174129e-07 6.447240116932e-08 1.820360665723e-07 8.215296600107e-08 5.400016805028e-07 5.064580376229e-07 7.754501860013e-07 -2.824664493771e-07 -1.317211299872e-07 -9.738044043209e-08 -6.801514590214e-09 -3.906813336883e-08 -9.943125254998e-08 3.250168122392e-08 4.678511681854e-08 -4.506915218075e-08 5.183022513401e-07 3.185255662217e-07 1.975192327072e-07 -3.723529623922e-07 -3.361917846100e-07 -2.172959036598e-07 1.619598412409e-07 8.217127721666e-08 1.070668355809e-07 3.501236915628e-08 -1.559313701909e-07 -4.649281370274e-08 -1.349363632189e-07 -1.725415098257e-07 6.021184369176e-07 3.713921439127e-07 3.997476337216e-07 -1.114953771850e-07 -1.914843974922e-07 -6.761423917942e-08 -1.412000128319e-07 -9.625747902734e-08 -1.606967122846e-09 -6.762261213182e-08 5.253119310218e-08 9.942703969214e-07 8.124017220553e-07 5.514035608084e-07 3.968354366289e-07 3.192714837222e-07 3.253076448239e-07 4.893258059641e-08 -6.440996272608e-08 1.036897604275e-07 9.328682815707e-08 8.654516208705e-07 4.970249874675e-07 5.155736639901e-07 2.347183032788e-07 2.650238452740e-07 3.003019624795e-07 1.190850067690e-07 2.399274397836e-07 2.069294296415e-07 2.331423243975e-07 1.700634208987e-07 9.313161039079e-08 1.489292925984e-07 2.005988940643e-07 2.950463871507e-07 9.370751728765e-08 7.137390742976e-08 1.703021450845e-07 1.899034286815e-07 1.517468248113e-07 1.569359221180e-07 5.698795567550e-08 8.629876010264e-09 -2.563665906722e-08 2.429645200354e-08 -1.541845736091e-07 -1.792183426247e-07 -8.538155409884e-08 3.397468955123e-08 -5.968134673695e-08 -5.166613069754e-08 1.201419328085e-07 8.474011987342e-09 1.569849614811e-08 -5.025520635488e-08 3.368488621837e-08 -2.022722037865e-07 1.657259032196e-08 3.301934453157e-08 -1.503792443872e-07 8.396379288987e-08 1.774553493850e-07 5.101542625424e-08 1.250637338387e-08 7.105077945651e-09 -3.460717425882e-08 1.184741327589e-07 -1.952942862737e-08 1.278332591861e-07 4.943464690723e-08 -6.965183207459e-08 4.634436172497e-08 3.734667071204e-07 3.222715906459e-07 4.932904855270e-07 4.110803900659e-07 6.505806707819e-07 -8.094491964080e-08 -1.618576430028e-07 6.660718653395e-08 3.221448824400e-07 2.922576473950e-07 1.534904608117e-07 1.875979273639e-07 5.369135114644e-08 -6.790551708564e-09 7.094412579380e-08 -7.947239523894e-08 8.899832449642e-08 -8.802092643498e-08 -2.906508899966e-08 6.951785857260e-08 7.041107447915e-08 -4.443569729439e-08 -8.530343658601e-08 8.461841559257e-08 1.165029880036e-07 9.250177591937e-08 1.089575612205e-07 1.119893890538e-07 1.532825996067e-07 1.256867244621e-07 1.228557512210e-07 1.505583035886e-07 1.104495770538e-07 1.411376802888e-07 1.644400353391e-07 1.915879213506e-07 1.885899799971e-07 1.003322189903e-07 2.912714379473e-07 2.109533477438e-07 1.716671760144e-07 -1.676872277352e-07 -2.751988218998e-07 -1.121005888492e-07 1.633861194635e-07 2.792913460640e-07 2.300513973761e-07 -1.101608944215e-07 -1.072288775534e-08 3.320129452261e-08 9.262731729690e-08 3.011106671503e-07 2.357625837901e-07 4.224894992501e-07 7.067703507613e-07 5.805082927389e-07 5.656242113527e-07 5.242323320391e-07 1.943555904268e-08 8.344634182251e-08 8.027290617371e-08 7.986985070394e-08 9.089479887964e-08 6.045363687143e-08 -1.000396443332e-07 8.443482894037e-08 2.325043279678e-07 1.878568611589e-07 1.396291453044e-07 1.039268748058e-07 1.926419734162e-07 9.076558548563e-08 1.074092571028e-09 -1.768838330459e-07 3.232831643527e-07 1.812596817213e-07 3.630319383560e-08 6.943846480009e-08 -1.350724880947e-07 -2.510067747287e-08 -1.195796036796e-07 2.403498374440e-08 -1.150979782589e-07 -1.847363196418e-07 -1.934746931660e-09 1.916414629819e-07 -1.401221124944e-08 -4.508171236562e-08 3.521147612044e-07 2.423821160883e-07 2.777221280051e-07 1.794086414998e-07 1.902536974339e-07 1.385892410226e-07 1.169504702416e-07 1.332423527943e-07 1.346571013415e-07 2.809306517578e-07 1.207894569585e-07 1.360608534597e-07 5.234158087915e-08 -4.716490763169e-08 1.571408951138e-07 1.937552419650e-07 1.531921331861e-07 1.810738066128e-07 2.172461310018e-07 1.597082301901e-07 2.040284425405e-07 1.183200630669e-07 -2.481656356716e-08 -4.323623021640e-08 -1.574873003209e-07 1.806892004623e-07 -3.808596992470e-08 -1.071966744693e-07 2.828402053402e-08 -3.212745524344e-08 6.217669002303e-08 2.990324109124e-08 4.299712190976e-08 2.380755900477e-08 -4.098761402797e-08 4.708433697480e-08 2.222597775821e-07 2.358996180376e-07 2.662705645764e-07 6.219754374831e-08 1.104447635889e-07 1.040230888873e-07 -1.277235744885e-07 -2.344174581789e-07 -2.741865410820e-07 8.881930237590e-08 -4.862439310702e-08 9.300383285575e-08 2.209853927397e-07 1.348301648392e-07 1.255735910151e-07 1.047328530214e-07 9.198914566298e-08 1.050523066556e-07 8.989740918342e-08 8.567711312242e-08 6.493083676240e-08 5.740284171175e-08 4.977324742303e-07 2.808476661449e-07 3.374848038927e-07 3.264458569693e-07 2.701154341949e-07 2.628675212536e-07 5.093459696600e-08 -1.573448912723e-07 2.192640764355e-08 1.583542826558e-07 2.771752243512e-07 2.602683332854e-07 1.952097008790e-07 1.905096896542e-07 8.043516321665e-08 -1.438318686767e-07 -1.239128445428e-07 -2.150234513513e-07 -1.234941752232e-07 2.031557975722e-07 1.715468019906e-07 1.533887554884e-07 2.954693885886e-08 4.099737915706e-08 5.006941854091e-08 -6.652616597515e-09 4.690468413069e-08 -1.295753058855e-07 -6.397567092769e-08 -3.820810418917e-08 1.664481172422e-07 -1.657434295085e-07 -2.040105993716e-07 -5.298228825041e-08 2.530071445687e-07 2.853176060568e-07 5.651466402006e-09 3.287613264230e-08 -4.382925501789e-08 3.261365159569e-08 3.279237769136e-07 5.569871787871e-07 2.731955392017e-07 2.671344022945e-07 6.955195567722e-08 -6.201673777034e-08 2.511093650542e-08 -2.535224421006e-07 -1.986842291286e-07 8.170035454793e-08 3.714178508188e-08 5.084874761475e-08 1.631028304843e-07 1.095558847607e-07 3.918097420498e-08 1.696476466755e-07 1.513644221245e-07 1.540324752513e-08 1.173538963377e-07 1.110237223226e-07 9.864158772239e-08 1.709510501252e-07 8.985772035539e-07 6.978101753615e-07 9.442627639335e-07 8.630090565400e-08 2.854624527894e-08 9.656580504194e-08 1.799340040961e-07 1.258827021071e-07 1.006020877956e-07 3.606045257141e-08 1.154581296689e-07 6.566087234663e-08 7.853518747861e-08 1.094407461384e-07 9.746988808510e-08 3.496192966840e-08 -8.786982095580e-08 4.854672376596e-08 -9.793765648044e-08 -3.073870008516e-07 -2.145617395457e-07 -3.716613340274e-07 -2.862797482782e-07 -3.878731803297e-08 -5.949828634474e-08 -5.898586546831e-07 -3.627697087054e-07 -5.126246473676e-07 -4.769419693403e-07 -8.777638077511e-08 -1.592976246890e-07 -1.411130707616e-07 -3.642494846911e-08 -1.970823925666e-08 6.861092973813e-09 3.613006260612e-08 6.797810068615e-08 -5.992873608276e-08 -3.062571979520e-07 -2.086133422069e-07 -1.611240329091e-07 -2.466773953172e-07 -1.915725132944e-07 4.358830542062e-08 -8.202692961411e-08 -1.442753390227e-07 -5.876305418490e-08 -3.275859568250e-08 -3.495199665760e-08 8.369257000293e-08 3.361385617022e-07 3.785317212479e-07 -6.335419092477e-08 6.115934533941e-08 1.010689083476e-07 2.189332332546e-08 6.183442742016e-08 -4.840452824886e-08 -6.660643147903e-08 -1.639626869995e-07 1.848318927350e-08 5.033683942028e-08 6.748204433716e-08 2.627073444601e-07 2.706540109914e-07 1.755608506106e-07 1.856983316755e-07 1.253421445462e-07 -2.673357425522e-08 4.679755407974e-08 -3.629725232221e-08 -4.546638171053e-09 1.141161331218e-07 6.523369411144e-08 -2.206641010296e-07 -8.161154821240e-08 1.583871958055e-07 1.278611777895e-07 3.366978114607e-07 -8.814499042622e-10 7.749619482180e-08 -1.308701548322e-07 -1.385412695053e-07 1.435375494238e-07 1.226333713040e-07 1.336729391568e-07 1.242475488943e-07 7.286221583805e-07 9.660387828832e-07 -7.319536191985e-08 -1.051919685839e-08 -5.280976373737e-08 2.059920933150e-07 1.199798584913e-07 1.173721782868e-07 5.229483675059e-08 3.482770585208e-08 -5.642974371810e-08 -1.213684014248e-07 -2.122088760779e-07 4.430572757830e-07 1.899972579385e-07 5.122561358256e-08 1.560671279960e-07 1.162675662772e-07 1.183194812676e-07 6.394627222427e-07 1.358388898284e-07 -4.235812918982e-08 -1.648124001057e-07 -3.139481441947e-09 3.391950555009e-07 -1.709946502232e-08 -1.791229751023e-07 7.221164739663e-08 -1.932419040907e-07 -2.992616669658e-07 -3.796187528086e-07 1.843887610727e-07 -1.941493516730e-08 1.213945382050e-07 1.809656321055e-07 2.504036087179e-07 1.548580650912e-07 3.021440933597e-07 -1.832422544313e-07 8.534475194629e-08 -2.798324543298e-07 2.809465205670e-07 7.052469894467e-08 7.322974174834e-08 -1.964591127648e-07 -2.196044326426e-07 5.814263133452e-08 9.675215656135e-08 -1.591544601061e-07 4.068208492911e-07 -6.395864266058e-08 1.076167744563e-06 2.156319783577e-07 1.233247672264e-07 8.158440797712e-08 -1.856788015609e-07 -1.428761861982e-09 1.196743150083e-07 2.820091401542e-07 2.958974540377e-07 -9.168450253812e-09 2.045189017807e-07 9.676324019197e-08 -1.105011385990e-07 -8.356641539461e-08 1.597132888894e-08 4.083736286118e-08 2.926121019165e-07 3.978675145087e-07 8.620806882439e-08 1.388720341172e-07 4.704398215801e-08 -2.006741446838e-07 -2.431184342353e-07 -9.624842352739e-08 -1.311759823415e-07 -1.180225166976e-07 1.422888466946e-07 1.483302658246e-07 -3.184441906307e-08 2.755772200202e-07 2.254761552984e-07 -2.614377503436e-08 1.562539404923e-07 1.214012915196e-07 9.839898091631e-08 1.981745518311e-07 -6.543974719042e-09 -1.369788098442e-07 4.668869182521e-07 6.377584064356e-07 3.492322051955e-08 -2.136334678871e-08 -2.198716646229e-07 -3.380468878260e-07 7.545034705715e-08 4.039155113367e-07 1.651894610849e-07 1.473072024381e-07 -1.232238147462e-07 -1.667502502876e-07 4.205306261026e-08 -5.751609514069e-09 1.718459460356e-07 1.263117157295e-07 -5.549246534042e-09 1.979152804531e-07 3.196089645542e-07 1.509991599980e-07 -4.670877457127e-08 -4.229756897075e-09 2.479723414119e-07 -1.019634474676e-07 -3.863140922773e-08 4.156004411485e-08 3.762532702156e-08 -8.042120015236e-08 1.370487635442e-07 5.294865202708e-08 -6.950786384792e-08 8.257733014435e-08 1.564532358730e-08 -1.312774541851e-08 9.001414373419e-08 5.751492783415e-07 1.720498267690e-07 3.074054346022e-07 2.483852216732e-07 -2.195629989809e-08 7.966003005966e-08 1.211474617918e-07 1.411826596665e-07 2.944920983558e-07 8.354859976404e-08 5.813078465856e-08 1.280371109961e-07 -1.603099803178e-07 2.716575576400e-07 -1.631006993716e-07 1.662360528901e-07 9.171139432532e-07 9.687144076853e-07 1.604227377200e-08 5.142508674503e-08 -1.350377375312e-07 7.444440326700e-08 2.073005531061e-07 -2.077514718695e-07 8.713139978931e-07 2.592888310910e-07 3.534808663723e-08 -1.113150017430e-08 2.537964619941e-07 1.050027383863e-07 1.312241577998e-07 5.339454642845e-07 -1.254996118898e-07 -1.409933101205e-07 3.378943599950e-07 -7.336502447368e-08 3.500978916790e-08 5.208765787363e-07 7.507407974029e-08 2.162875116443e-07 1.867452982268e-07 5.083679629126e-08 2.531978558942e-07 1.411290816060e-07 1.020090657688e-07 -6.082971305040e-08 2.290282987021e-07 1.437575502242e-07 -1.688503534972e-07 1.783392526920e-08 -2.956392798394e-08 1.800627373873e-07 1.403698379925e-07 -6.751076695722e-08 4.674536348115e-08 -1.273795950884e-07 5.248070106262e-08 2.135660052591e-07 1.121074907363e-07 -1.921717326007e-07 5.462195966546e-08 3.700780603358e-07 4.889725199836e-07 5.226793337641e-07 3.581976637933e-07 4.994297302608e-07 4.050567219814e-07 1.427194830214e-07 3.194458685319e-07 2.332243741183e-07 1.040536862188e-07 1.170126010804e-07 1.286106291489e-07 9.337580191704e-08 1.132563864494e-07 1.483698968681e-07 -7.107868330372e-08 -1.842562523505e-07 -1.624839650292e-07 -3.262897239520e-08 -1.125037028515e-08 -1.725267926361e-07 -1.038745631560e-07 -1.383055462542e-07 -1.511632385493e-07 -5.624956328193e-08 -1.606894802368e-07 -1.334527738217e-07 -1.785962644009e-07 -3.021691983390e-07 -2.584193663161e-07 -1.176874185675e-07 -1.666959987152e-07 -2.474226966842e-07 -4.775563333203e-08 1.748717310484e-08 1.401602599970e-07 7.615771183650e-09 -8.642523257006e-08 -1.083641507078e-07 -4.620449574924e-08 -2.689499179532e-07 -1.051032096919e-07 3.013150848121e-07 3.343410041485e-07 3.409701650563e-07 -9.729286995499e-08 -3.287110063838e-08 -8.496484482191e-08 3.094775051018e-07 5.141634476425e-07 5.145862602250e-07 -1.664503384263e-07 -3.080338746981e-07 -4.577294362406e-07 -1.418904224717e-07 -4.290910814931e-07 -2.657623986590e-07 -1.144423908048e-07 -1.684833046019e-07 -8.017304131750e-08 1.081335061661e-07 1.920978051126e-07 3.033807046429e-07 2.347644729916e-07 3.675633759865e-07 3.855302630695e-07 6.187299466795e-08 1.186229844394e-07 6.138796089289e-08 -2.799922977086e-08 -1.404252411857e-07 -1.720321425429e-07 -4.302546053572e-08 -1.698661959475e-07 2.896854282283e-07 4.973939945000e-07 -8.342993800975e-08 -6.921028175869e-08 3.833023508612e-07 6.936467578638e-08 2.427894735356e-07 2.903559398030e-07 -1.870142369095e-07 -1.097406145891e-07 -7.095806481123e-09 2.145229634952e-07 -6.668851602086e-08 -2.013626172632e-08 7.155452192859e-08 -5.875633616244e-08 2.521338722491e-07 -1.729889074090e-08 -8.648276094546e-08 -1.865123462270e-07 4.363245748253e-08 -5.320218221523e-08 -1.543826847132e-07 -1.583572441845e-07 2.546482740454e-07 3.762826745928e-08 -4.370884294545e-08 2.193449398350e-07 2.156550707297e-07 2.203147983592e-07 5.124308963475e-07 4.362575694433e-07 5.278442781137e-07 4.139148929732e-07 3.692343697715e-07 4.049182015480e-07 2.574224595492e-07 2.282033564888e-07 2.535669370954e-07 1.032358335511e-07 1.829883575117e-07 6.120241588912e-07 5.147771524413e-07 5.475164849782e-07 3.703552538766e-08 2.320767642362e-07 3.423192691071e-08 3.295321671029e-07 2.963658159507e-07 2.663169398023e-07 -6.183652626460e-08 1.342805058019e-07 -2.074203215146e-08 -2.148035850475e-08 -7.536579479318e-08 6.280156617823e-08 -1.489189281121e-07 -2.678676478603e-07 -1.644418340386e-07 -7.146513586391e-09 1.765533360035e-07 5.353357385512e-08 3.230142552646e-07 2.815972134393e-07 3.595822277617e-07 1.782121310165e-07 2.147407523520e-07 1.526998199055e-07 5.325263680564e-07 4.700860443373e-07 3.793670239130e-07 1.320433738033e-07 1.822301938643e-07 6.776670485226e-08 -3.221565674150e-07 -3.201893560430e-07 -3.033259738135e-07 -5.246714362255e-08 -2.276571531117e-08 -4.171911756027e-10 -7.367172632369e-08 -6.158028633737e-08 -1.097684140980e-07 -2.009180656328e-07 -2.300825528013e-07 -2.454070614572e-07 -3.052209837963e-07 -3.815722425860e-07 -3.339678128812e-07 -1.892981139261e-07 -2.474955349615e-07 -2.635349175462e-07 2.627905946552e-07 2.548867912287e-07 3.238400445101e-07 1.358188170842e-07 1.649544653984e-07 -2.028650083622e-07 -1.660582744584e-07 -9.135822024823e-08 -5.724161876335e-08 -1.500654274989e-07 -2.748423527882e-07 -4.865070749717e-08 3.351532280259e-07 4.183875481602e-07 5.818123617204e-07 1.873696702892e-07 5.719496763512e-07 7.688647508553e-08 9.459223648388e-10 -2.384475969345e-07 -2.515786967188e-07 -6.530220191381e-08 1.660976785724e-07 -2.935503009875e-07 -5.034116728243e-08 3.828447267193e-07 2.881445068358e-07 3.697684119379e-07 -2.713679079249e-07 4.564530312597e-07 9.525608279423e-08 8.312720278751e-08 -7.737684443719e-08 -1.181879938635e-07 1.397093403158e-08 4.855201460559e-08 4.276004763302e-07 3.204314875003e-07 3.872399002918e-07 1.767287885542e-07 1.747390345587e-07 2.087016992587e-07 3.004678503554e-07 2.380736257271e-07 2.478795618521e-07 1.238084213035e-07 1.027183363221e-07 1.528052607872e-07 4.420140274585e-07 3.922101447741e-07 3.439394728390e-07 2.193254196840e-07 1.915698941154e-07 2.286678995421e-07 3.222527811560e-08 2.280895284530e-08 -1.147580931510e-07 1.450161002723e-07 1.020728195583e-07 3.202548276609e-08 -2.058569440545e-07 -1.798242768522e-07 -1.288658635597e-07 -3.802777280263e-07 -3.631254374540e-07 -3.474096079767e-07 -3.445398421887e-07 -2.840633058137e-07 -2.975046471335e-07 -8.157858423611e-08 1.509096535163e-07 -1.912924602857e-08 2.577122124755e-07 1.907291690239e-07 1.824931094347e-07 -1.939733529354e-07 -2.180764476725e-07 -2.332044722715e-07 4.294934888650e-07 3.560324391492e-07 3.352092415816e-07 2.347279623665e-07 1.232281162808e-07 1.760611090419e-07 1.443004660872e-07 2.044152660652e-07 8.592574308139e-08 4.565572940296e-08 3.315032239165e-08 7.978643897826e-08 2.149318957552e-07 1.375136511683e-07 1.418770682535e-07 -2.699661275140e-07 -1.883614464234e-07 -1.983403819481e-07 -2.281471882047e-07 -2.395295123114e-07 -3.503185451367e-07 -1.858080593117e-07 -1.342440374942e-07 -2.293462253499e-07 -1.310459817403e-07 -7.299912309471e-08 -6.818331313158e-08 -9.013018673598e-08 3.182923371517e-07 2.069995985365e-07 1.049499853342e-07 7.100690374580e-08 1.102062003924e-07 8.152146334582e-08 -1.739150219191e-07 -3.686111050697e-09 -3.240889751689e-08 4.782214396641e-07 1.596098697717e-07 2.586167961390e-07 3.828458698223e-07 2.128162418572e-07 4.537325748425e-07 -3.661322082410e-07 -2.456945397612e-07 4.958727090653e-08 -2.493968616471e-07 1.415455120790e-07 1.820713269710e-07 1.743943472802e-07 -1.650104099415e-07 -2.699153158148e-07 7.394192242168e-08 -1.905551355925e-07 2.734841028061e-07 7.885682303958e-08 9.184500976679e-08 -4.890544705538e-08 2.742822699205e-08 -3.336922595399e-08 6.926577071976e-08 2.305229677074e-07 1.478690900569e-07 1.305193122935e-07 2.044782881831e-07 9.780098257776e-08 1.150206698313e-07 2.403906307291e-07 1.038011602587e-07 1.479039910068e-07 1.887563284984e-07 1.387588285371e-07 1.706721648385e-07 1.933642452157e-07 1.758009574903e-07 1.136011129274e-07 2.776076793767e-08 2.110484028588e-07 1.290237479667e-07 -7.606876933908e-08 -6.016385381446e-08 -5.246224350041e-08 -6.879249330584e-08 -2.102188451783e-07 -1.254685099960e-07 -3.661692563605e-08 -2.949432558912e-08 -5.424582794980e-08 -1.724054973860e-07 -1.767157305802e-07 -1.156756687327e-07 -2.340747135231e-07 -1.880155040550e-07 -2.179323279210e-07 -1.952300457011e-07 1.153214311460e-07 -1.090771103943e-08 1.323541670503e-07 1.638433888651e-07 3.383279042812e-07 8.655617733591e-08 1.049182308967e-07 1.233228369017e-07 8.028974452382e-08 1.134528468582e-07 1.321384692051e-08 8.926049424537e-08 1.494485265737e-07 5.957448127604e-08 2.352194825070e-07 4.816299026341e-08 1.455734426771e-07 -4.074244673486e-07 -2.723776031889e-07 -3.661188394537e-07 -4.466609801968e-07 -3.492156921848e-07 -2.002965139869e-07 2.186848772730e-07 2.219419073400e-07 2.112722671499e-07 1.736473436274e-07 8.617469643054e-08 1.589913739957e-07 1.405308195515e-07 7.779353163184e-08 -1.586640911841e-08 3.057099268439e-07 1.917964007474e-07 1.333262898426e-07 -1.373274647601e-07 -7.006634315281e-08 1.552379271235e-07 3.735327119090e-08 -1.341387883294e-07 -9.247041037978e-08 -1.626863011414e-07 -1.292015849074e-07 5.919645759822e-08 2.026901341517e-07 1.949393843234e-07 1.892735314186e-07 2.171155542942e-07 -2.332112066694e-07 -3.617503283855e-07 1.215345808461e-07 5.669988677937e-09 2.705356325218e-07 1.579250748175e-07 -4.694475977823e-09 7.712808150453e-08 -3.678523068965e-07 1.285336958924e-07 -2.753236927418e-08 2.934208540665e-08 2.942921135160e-07 -2.545291551088e-07 -5.411978688269e-08 -1.892555167051e-07 1.820617667728e-07 1.395513772371e-07 -1.356272754556e-09 7.569050569466e-08 7.495958674196e-09 3.195210485382e-08 4.417717784415e-09 -6.854771165390e-08 -7.108887442884e-08 -3.683506251502e-10 3.456991357079e-08 -1.220975674609e-08 1.034332694816e-07 1.150428265630e-07 1.439177233078e-07 8.208842715879e-08 8.201297649371e-08 -1.691714947237e-08 1.831271420247e-07 1.380626745889e-07 9.148497598527e-08 -1.841698488043e-07 -7.948712764564e-08 -1.922247182976e-07 -7.387597821997e-08 -1.663003021986e-07 -1.743176768672e-07 -4.886052786090e-08 -3.984408695296e-08 5.450092040609e-08 -1.880441172774e-07 -1.318630703441e-07 -1.485794712785e-07 8.250338953964e-08 2.569550340343e-07 2.773443914061e-07 3.818351147864e-07 3.376803995582e-07 3.760691517162e-07 9.202236110655e-08 1.404827310221e-07 1.681856629082e-07 2.038632135436e-08 9.194098844673e-09 -4.407531946587e-08 2.549305037937e-07 3.824812876580e-07 2.161733263529e-07 9.058369282955e-08 1.080227655692e-07 6.060247274712e-08 4.547865642203e-08 4.055308661882e-09 3.167444418488e-08 -1.964117606426e-07 -1.404022710421e-07 -1.087237138483e-07 -4.618381163557e-08 4.766631097465e-08 7.470615215936e-08 2.477871523055e-08 -2.754515748745e-08 3.557832393679e-08 8.062871766598e-08 1.682867000550e-07 1.596145288375e-07 2.065565862974e-07 -7.735187275081e-08 -9.679923978839e-08 7.625549167277e-08 7.936677845344e-08 3.419120899999e-07 3.045681899611e-07 1.428401609956e-07 1.094521961998e-07 -5.498663120604e-08 -2.360116402710e-08 -9.502896312233e-08 -1.455687098862e-07 2.656666274718e-08 -2.725023874780e-09 -1.212317709309e-07 -1.994379301825e-07 2.000502646993e-07 5.158989487583e-08 1.163492736699e-07 1.231317827147e-07 1.870168973888e-08 -1.828899684534e-07 1.614638223756e-07 -2.546315602558e-07 1.201987661565e-07 -2.929795941958e-09 3.322307679859e-07 6.324580165112e-08 -8.138598734801e-08 -1.020930309137e-07 1.243345461662e-07 6.544742007095e-09 1.503253084773e-07 1.050317600506e-07 -1.920352350806e-07 -4.851627523624e-08 1.011635032555e-07 -5.438478130414e-08 -2.860959160328e-08 -2.983718695654e-08 1.340020629407e-09 -3.151623127860e-08 -5.009120774817e-08 -5.966258650042e-08 -9.494974674430e-08 -1.061245951670e-07 4.233310645611e-08 -1.110069723859e-07 -1.584348943217e-07 2.008311044074e-09 -1.823123383359e-07 -1.294202792784e-07 1.223827632191e-07 -4.934312420324e-08 1.337755581371e-07 -8.698883729245e-09 1.327910921163e-08 -5.566001841675e-08 -5.184462498620e-08 2.300393328979e-08 2.549062043836e-08 5.258056931072e-07 5.646505728652e-07 7.192187959726e-07 -2.320534303278e-07 -1.865956626117e-07 -1.355423311205e-07 -1.706954113730e-07 -2.774730784061e-07 -2.168912916382e-07 3.746787514064e-07 5.022030197514e-07 5.171464635210e-07 2.437013670495e-07 3.258993995900e-07 3.161087918701e-07 8.704898962707e-08 9.961444065681e-08 1.042754291103e-07 -4.257132923813e-08 -9.038588597250e-09 -6.111040974952e-09 -7.616230477544e-08 -2.965528750160e-08 -5.654886289799e-08 -6.326705945717e-08 -1.406811934351e-07 -3.476575506363e-07 1.345239010720e-07 3.351376593525e-07 1.601422857355e-07 2.100548577649e-07 4.251214794161e-07 4.138958666337e-07 2.014569450345e-07 2.043699699378e-07 2.798738128854e-07 5.049876479742e-08 9.356214935309e-08 3.080232954377e-08 -5.743484050743e-08 -8.259010667040e-08 -6.106938966595e-08 2.914009719698e-07 5.650910634190e-07 5.173259150815e-07 6.305231538734e-07 -3.823842911370e-08 -4.998198225051e-09 1.611998333895e-07 1.223253799589e-07 -1.972784506479e-07 -2.992144004917e-07 1.651060195374e-07 -2.317509520766e-08 9.532547133364e-09 -1.357857533103e-08 -4.485787682801e-08 -6.384981679656e-08 -3.522185831590e-08 2.453726408645e-08 -3.297399074577e-09 2.253620518430e-07 2.340187304126e-07 2.272286504235e-07 3.026465970995e-08 6.009768471633e-08 -2.783371060996e-07 9.406925880111e-09 -1.070756242892e-07 5.396280613418e-08 6.214846757930e-07 4.638661243728e-07 -2.234156873005e-07 5.246899123974e-08 1.087477519588e-08 1.499894722586e-07 -3.269308106704e-07 -9.581967568654e-09 7.034778502894e-08 9.723044032714e-08 -1.402774168246e-07 -8.475564405123e-08 -1.156043594379e-07 -1.862520133012e-07 -1.856107732004e-07 -3.394023429646e-07 -3.283370527067e-08 -2.067019866248e-08 -4.606272277540e-08 -1.781124122084e-07 -8.515231304918e-08 -1.641786265538e-07 -4.079422773531e-08 7.570089656735e-08 4.399587122309e-08 -1.210805839582e-07 -4.078104190479e-08 1.437765788504e-09 -1.339032573131e-07 1.304791612740e-07 4.846481851694e-08 -1.969490657596e-07 -3.507155044765e-08 -2.058244990988e-08 -4.532035622936e-08 4.777220203086e-08 7.166980110763e-08 5.837168589134e-07 5.193713533339e-07 4.833085964322e-07 7.137566256571e-07 5.514617882451e-07 7.041085158265e-07 6.897805617344e-07 6.669674495133e-07 4.113015345531e-07 4.370511357655e-07 4.603430763117e-07 4.259225220595e-07 1.632164977202e-07 1.141362357100e-07 1.168337088887e-07 1.079344946232e-07 1.537417951611e-07 1.122119654585e-07 -1.775518021925e-07 -1.135348039708e-07 -1.087390123552e-07 7.023436509446e-08 1.198505098176e-07 2.981587849990e-07 3.568264280639e-07 3.661677536369e-07 4.648699070446e-07 2.233885106587e-07 2.898433295821e-07 1.440123120853e-07 8.628121461894e-08 8.700327748465e-08 9.350070408536e-08 -3.434199114070e-07 -2.092963944503e-07 -1.391285402663e-07 6.456506445458e-07 4.966368163548e-07 -1.125674218302e-07 -1.956262972423e-08 -8.052165663897e-08 2.212015665678e-08 1.094922880883e-07 7.807771060462e-07 6.935351896447e-07 2.338904434786e-08 1.350650638206e-07 4.891501167233e-07 4.736122414398e-07 -3.117793757154e-08 -5.907484072476e-08 -7.562099573919e-08 6.954828560847e-09 -1.323542844917e-07 7.327129920950e-08 5.136385729887e-07 -1.357975777003e-07 1.291822859732e-07 2.176533030709e-07 3.923370733001e-07 1.246613539745e-07 -1.690004646735e-07 -1.795916593399e-07 -2.816168144257e-08 8.056930840402e-07 4.816110585702e-07 6.042355450399e-07 9.316059371069e-08 -1.253407655430e-07 -5.277410634126e-08 9.090929429295e-08 -1.841022108454e-07 -1.115950846679e-07 -1.717038928147e-07 -1.731669774980e-07 -1.805755173058e-07 -1.220544931900e-07 5.519608288614e-08 2.318734558437e-08 2.185664174966e-08 -6.082146250122e-08 -3.253183942684e-08 1.709201417997e-08 -1.285404969084e-07 -1.474378455612e-07 -8.184396601370e-08 1.078378727530e-07 1.474988322531e-07 7.666911329342e-08 9.568894471789e-08 -1.625548042415e-08 3.189254391789e-09 3.770591430648e-07 4.493485119307e-07 2.472771904050e-07 4.441746470281e-07 4.688111204374e-07 4.101912763948e-07 2.893775791684e-08 -1.015070387576e-07 8.685801004497e-09 2.940525971830e-07 3.072419786425e-07 1.670196963227e-07 9.061402697211e-08 1.697268241861e-07 6.880118367275e-08 3.161437907502e-07 2.895139230775e-07 3.138573306794e-07 8.227641406663e-08 5.503581051929e-08 4.377730848710e-08 -3.074780009417e-08 -5.493795970252e-08 -8.837540220697e-09 3.189322071534e-07 1.398063874260e-07 2.195108870537e-07 3.948032822807e-08 5.933359661854e-08 1.377302878340e-07 3.325655943762e-07 1.566316282775e-08 3.561972371135e-07 6.047551567651e-07 1.478357476056e-07 1.580171941229e-07 1.762658707506e-07 1.291125598751e-07 1.365917975570e-07 1.183437019060e-07 2.423854789533e-09 8.582376579579e-08 -1.987484782231e-08 -2.006280295921e-08 -5.685618185017e-08 -1.897606076930e-08 -7.186769914712e-08 -2.580595018685e-07 4.554450761650e-08 -5.472511649903e-08 2.455532452344e-07 1.259559581785e-07 3.734973343692e-07 4.676962129545e-07 3.067607157735e-07 3.477939575959e-07 -8.230149024045e-09 -8.112201854034e-08 -1.865539228227e-07 9.002546643625e-08 -1.519378854940e-07 1.256616697384e-07 1.186421917817e-07 -5.277242875740e-08 -2.114729443019e-09 1.229893328162e-07 4.118065047137e-07 4.474641022859e-07 2.356099553248e-07 1.177449157472e-07 1.634699838378e-07 7.575861539328e-08 8.708966978566e-08 4.454163897914e-08 3.690050801200e-07 -1.586916225986e-08 2.472046206406e-07 4.931221067612e-07 2.185640339229e-07 3.331969281925e-07 1.195782047633e-06 2.659154701711e-07 2.480026315172e-07 5.906209968297e-07 -4.240243572998e-07 2.733999618041e-07 -4.625975537182e-07 1.398613198422e-07 4.531003176266e-07 8.631947256262e-07 5.951874425993e-07 5.965221069952e-07 4.617333958143e-07 5.735676842989e-07 6.186827411319e-07 1.073462263937e-06 4.951674107637e-08 2.590969170038e-07 3.311368438456e-07 1.479810489836e-07 8.565670368726e-07 4.652504664087e-07 4.017637669675e-08 1.055682796783e-06 1.136553075212e-06 1.321593296977e-06 3.999076024236e-07 -4.940571831419e-07 1.798900391566e-07 8.901579819572e-07 6.672178350110e-07 -6.911186807326e-07 -4.974007975999e-07 -4.878316197797e-07 -6.500051416826e-07 -4.542245696446e-07 -7.094261139508e-07 -7.127593739593e-07 1.451981308360e-06 1.632487715750e-06 1.443213402848e-06 1.561175328636e-06 7.998025491178e-07 8.009469730852e-07 9.118286430341e-07 9.234848377791e-07 -9.333354113051e-07 -8.011765585078e-07 -7.347129593392e-07 -1.019793690014e-06 9.355363637091e-07 1.001791390642e-06 8.334937058329e-07 1.015343613748e-06 9.825267190910e-07 7.387124743044e-08 2.436373077407e-07 6.567623629224e-07 1.321225849191e-06 1.497637248308e-06 1.666994733941e-06 -1.615020083115e-07 6.790782774287e-08 -1.856631330186e-08 1.486050807093e-06 1.526555508747e-06 1.570072738938e-07 8.643351033712e-08 -2.686654781494e-07 3.040998314721e-07 -4.124673360271e-07 2.161792145646e-07 -5.016529633011e-07 -2.560680072131e-07 1.617674456150e-07 -2.316675302592e-07 -4.653438804680e-07 -5.737086369235e-07 -1.764142863192e-07 1.323859997562e-06 7.168556779015e-07 5.257993025331e-07 8.634099321216e-07 1.044328167366e-06 6.722884972603e-07 7.799975711825e-07 7.637291239853e-07 4.592990992284e-07 5.757647228023e-07 6.536842448489e-07 -1.315648089455e-06 -1.238815833016e-06 -1.103048700584e-06 -1.256093940910e-06 -1.096705767963e-06 -1.298206478580e-06 1.245366771286e-06 1.189212210590e-06 1.123342050379e-06 -8.816867475275e-07 -7.427719849747e-07 -8.670449308610e-07 5.005483110108e-09 -2.120291183657e-07 -3.768585754620e-07 -3.220129439594e-07 7.983770384724e-07 9.851097228025e-07 1.169517009917e-06 1.101559518259e-06 1.079104629864e-06 1.055454687754e-06 1.089361060498e-06 -1.044360127261e-06 -9.284825151756e-07 -9.767203285106e-07 1.035990726966e-06 9.048442297360e-07 8.338166398285e-07 1.005170185497e-06 5.225489472217e-07 6.609141391441e-07 3.563603815521e-07 4.534778562831e-07 -5.269646451676e-08 1.741486849966e-07 9.452688351059e-08 3.935460533399e-07 5.004114920903e-07 7.899105547604e-07 8.317358196705e-07 9.096267553457e-07 5.709135020228e-07 6.086789818735e-07 7.980327437758e-07 5.673615679249e-07 6.713031811318e-07 6.854814288728e-07 9.016104067564e-07 7.164129864475e-07 8.646645331602e-07 7.628254794448e-07 7.352038472961e-07 7.575283218105e-07 1.581099222533e-06 1.445515272213e-06 1.594500473787e-06 1.616397437187e-06 1.115539755288e-06 8.002565203920e-07 1.002426450155e-06 8.068963483738e-07 1.421177203015e-06 1.464364774797e-06 1.365934700136e-06 3.453799631108e-07 2.174381426633e-07 1.581299316689e-06 1.330328826698e-06 1.241853348300e-06 -1.378256118236e-07 -2.087269424154e-07 2.832915505523e-07 -6.944589167532e-08 5.824444295033e-07 9.391499807177e-07 9.408008234588e-07 3.254823984428e-07 5.585535880710e-08 -2.407972141564e-07 1.061620076870e-06 1.307091863992e-06 9.460147647364e-07 1.159381729187e-06 1.263014645405e-06 1.338178673729e-06 -9.144628925802e-07 -7.881191181452e-07 -9.829133880524e-07 -3.232802266602e-07 -5.344721991263e-07 -6.036065431667e-07 -3.963606614951e-07 -3.817953700309e-07 1.625075835228e-06 1.624208555934e-06 1.473221115589e-06 1.625887675440e-06 1.743491343121e-06 5.571638521367e-07 5.418556113061e-07 6.809085304887e-07 9.552989393014e-07 5.804704136562e-07 -1.591680727627e-07 -4.657070000211e-07 -1.049766377604e-07 -4.790213311344e-07 -7.963091846683e-07 2.153519329175e-07 -8.679723215512e-07 -8.164102569858e-07 9.831920511890e-07 1.018609625422e-06 9.068922405180e-07 6.244627412954e-07 7.624297716495e-07 4.728681127936e-07 1.705092154586e-06 1.465265063062e-06 1.522125064973e-06 1.554499708560e-06 -8.093541009652e-07 -8.862124991146e-07 6.998217943726e-07 7.232453720925e-07 9.122143835207e-07 5.439437713208e-07 1.349649117050e-06 1.968971482351e-07 5.550993584243e-07 4.110107594104e-07 -6.901927773639e-07 1.155025686699e-06 3.314644242507e-07 2.771305619030e-07 3.948453644853e-07 1.884034301877e-07 3.000754975698e-07 3.367749999516e-07 -8.184587589693e-07 -6.310282722845e-07 -6.127263400524e-07 -4.307321105358e-07 -2.857675619176e-07 -4.722314778795e-07 -8.740008138515e-09 1.378899644239e-06 1.256939268009e-06 1.923646346019e-07 1.974705249301e-07 1.182756760468e-07 7.187309353156e-07 5.606932850174e-07 8.545378368093e-07 2.948065543107e-07 5.769867695633e-07 1.159326726944e-06 1.364063595921e-06 1.347421389777e-06 9.154589828615e-07 1.073501183670e-06 1.686305444657e-06 1.596631037203e-06 1.618913374789e-06 4.315782117995e-07 3.337462337744e-07 7.911603045842e-07 3.835724984381e-07 1.433546989113e-06 1.498968224129e-06 1.316995583102e-06 1.026223642595e-06 1.076485399913e-06 1.119613928784e-06 8.685442461063e-07 3.868051729847e-07 6.375595565498e-07 4.349397682680e-07 2.924766461895e-07 2.308273937723e-07 2.022380729899e-07 3.677984167505e-07 4.902768161075e-07 7.165150322022e-07 8.058700907386e-07 7.934017096267e-07 -1.098499729400e-06 -8.665072439023e-07 1.577832610449e-06 9.709287175728e-07 8.408128684709e-07 8.503702651748e-07 8.100162228876e-07 -3.328955050488e-07 -5.831619917948e-07 -3.819024355613e-07 -6.139996492177e-07 -6.627138601465e-07 4.764290543870e-07 5.263600095286e-07 5.209807594841e-07 -9.796250733369e-07 -1.181026560615e-06 1.018602648985e-07 1.360198703581e-07 1.191237477563e-06 1.039676066582e-06 1.372025072767e-06 1.335303330525e-06 1.330805748809e-06 -1.062129921253e-06 -1.062360473579e-06 -8.119359451787e-07 1.473361476893e-07 5.002901844602e-07 4.220148713856e-07 8.447732908945e-08 -9.668573178101e-07 -6.070316513743e-07 -7.922865958596e-07 -3.006752100037e-07 -4.934637157454e-07 -4.358695834604e-07 3.358130422320e-07 4.547322828115e-07 4.624697083325e-07 1.484705920393e-06 1.459986423439e-06 1.496902132134e-06 -5.143104163664e-07 1.213807454821e-07 2.273706916750e-07 -2.109889870860e-07 1.511088184335e-07 8.881593552698e-07 7.686399596095e-07 1.227457531427e-06 1.272531936690e-06 3.133688567161e-07 2.747227736877e-07 4.903022579841e-07 3.737369067403e-07 1.854753358259e-07 5.898200034991e-07 1.500965247418e-06 5.853583216433e-07 4.889554600377e-07 6.626411459918e-07 6.401348584931e-07 -2.909477321798e-07 8.690606195198e-07 6.833976124369e-07 8.960956716236e-07 8.382305749283e-07 -4.251486139399e-07 1.422248818894e-06 -4.657238913228e-07 1.444665113931e-07 -3.608894329050e-07 6.765057265322e-07 -1.154084627519e-06 -1.058048243825e-06 6.519318516283e-07 1.054062331811e-06 3.309636260631e-07 4.402566399949e-07 9.873643881469e-08 1.405344546803e-07 1.460006937996e-07 1.347970242047e-06 8.547645607575e-08 5.334470817651e-07 4.550712502390e-07 -8.260936087778e-07 -8.432795942142e-07 -6.574617170420e-07 5.412311327561e-07 7.270322500427e-07 4.190588449573e-07 7.158096664911e-07 4.205714660631e-07 4.888426093428e-07 1.123462438401e-06 2.757536628015e-07 3.233697965837e-07 8.808060001349e-07 8.526397122200e-07 7.957168911490e-07 1.670515900200e-07 5.346418125148e-07 5.345756484849e-07 1.113180373645e-06 1.228408206018e-06 4.563482433375e-07 1.331100522503e-06 -5.688548566339e-08 7.202388272904e-07 3.494083076399e-07 5.726725235700e-07 -4.782671074304e-07 3.872202600853e-07 -1.873223389985e-07 -6.067600237796e-08 1.412061680503e-07 1.364851010693e-06 5.173325502818e-07 1.193007743387e-06 1.126768599987e-06 1.453476736871e-06 -7.387964861252e-07 -5.724888475271e-07 5.831763641657e-09 1.268913331225e-06 7.366491752687e-07 -2.793257034982e-07 2.514012107564e-07 -2.284899735862e-07 -4.734741505215e-09 -3.673738364825e-07 -7.003653420600e-07 -7.747853813813e-07 -8.753196988679e-07 -9.989433604689e-07 5.825274141152e-07 1.254703346801e-06 7.507752221730e-07 -8.747164082420e-07 6.365141710686e-07 1.845874744010e-07 1.588125737410e-06 9.190916946281e-07 -1.009456212174e-06 -8.245462917975e-07 2.566333099666e-07 -3.819163963068e-07 -4.108493307906e-07 1.404921613563e-06 -5.898471553805e-07 1.470564670359e-07 1.618673543192e-06 3.211024417002e-07 -2.944760909625e-07 1.538921901459e-06 -1.531495945130e-07 3.321332316191e-07 3.884122925578e-07 -5.720980501159e-07 -6.862744648743e-07 -7.682861834468e-07 1.066905121802e-06 6.181210555030e-08 1.064413370256e-07 5.078556720238e-07 -1.110042613349e-07 3.441096758105e-07 -2.032763259305e-08 -2.728834903046e-07 -2.039705485130e-07 5.071368209078e-07 -7.301981049004e-07 -1.169356758792e-06 -8.261682122567e-07 8.952153830080e-07 1.260188561520e-06 8.279027597583e-07 1.042883350520e-06 9.250826028698e-07 1.280754758288e-06 -5.155136921976e-07 5.919305318116e-07 -6.579162670564e-07 4.681219261947e-08 -2.656682835016e-07 8.525494287205e-08 -6.365585340643e-07 6.869012830490e-07 -9.088835872610e-07 -9.017692354594e-07 1.172639730127e-07 -7.778961537405e-07 2.602891094336e-07 1.263522938714e-06 3.038398045449e-07 -1.301372826914e-06 1.404889753587e-06 7.965651572289e-07 1.168800192264e-06 3.884180122525e-07 -3.341180603719e-07 1.257806748963e-07 3.176727853280e-07 1.043409213053e-06 -4.548468900979e-07 -6.105107688200e-07 9.742254202991e-07 1.847351605289e-07 2.653168396788e-07 -7.890973522810e-07 8.137611331310e-07 2.442461178610e-07 -7.913884274687e-07 1.099673759838e-06 5.612082597517e-07 5.969089146574e-07 1.270466634540e-06 -1.107327381420e-06 4.623924076607e-07 1.578701755915e-06 6.503936577934e-07 3.767898597740e-07 -6.899776786446e-07 1.186525139225e-06 1.527453772884e-06 -6.914368358662e-07 3.468243930119e-07 -3.490488247979e-07 6.924577949064e-07 7.059709025801e-07 -4.383306942053e-07 -1.688831785280e-08 4.787686546933e-07 7.826233738556e-07 3.379674046471e-08 9.119060326191e-07 4.432222153392e-07 5.375221880409e-07 -6.981307224514e-07 1.516974799560e-07 1.667209617765e-07 2.923045038565e-07 6.467464393548e-07 8.940038364340e-07 7.042396627372e-07 3.592842226128e-07 -3.378850832397e-08 8.080895006705e-07 3.314075973182e-07 1.541125853946e-07 1.859181068020e-07 5.283361694287e-07 -5.242854918754e-07 -1.864910530082e-08 -4.623902873310e-07 7.595303260685e-07 5.185437323540e-07 1.112053196443e-06 3.961372199393e-07 1.951512564758e-07 9.040763049828e-07 -1.426125165074e-07 4.385735563042e-07 2.097098109729e-07 -5.156707408750e-07 -2.903633648241e-07 3.537253562165e-07 1.642379100666e-07 1.192939085943e-06 3.688367832362e-07 -5.225132776041e-07 3.833617458484e-07 6.899505809967e-07 -7.236506275432e-07 1.081970217566e-06 3.874476835089e-07 -3.026365342167e-07 1.266488176306e-06 -5.565696204048e-08 -5.392467262832e-08 1.615770639116e-07 4.316662056119e-08 -5.404996525000e-07 -1.262660157521e-07 1.000847853117e-06 -6.557079797672e-08 4.475504099415e-07 2.027768435472e-07 6.024298322745e-07 5.060969684224e-07 2.703052179176e-07 2.078480380504e-07 7.534269178310e-07 2.618543649159e-07 3.407662822051e-07 2.035572180933e-07 1.233161115899e-06 4.174148570360e-07 -3.621068023007e-07 -9.947420898900e-09 1.127041649613e-07 3.743034327669e-07 3.694124563400e-07 -1.971194216874e-07 8.415969600698e-07 2.820079079884e-07 -7.596266772960e-07 1.333178266098e-06 -2.901253130679e-07 -7.363643100088e-07 3.045584262914e-07 7.769677790328e-07 5.126892738603e-07 7.624076069979e-08 7.016769279693e-08 1.444992624933e-08 1.160966764972e-06 4.270499306936e-07 -3.418126586822e-07 1.056187448849e-06 3.390216982054e-07 3.562267131882e-07 -2.865825542225e-07 4.723774371104e-07 1.309699478651e-07 3.854707578084e-07 -2.335107055916e-07 5.699884712713e-07 -9.142290731844e-07 3.744577107264e-08 5.603537255932e-07 1.028449469844e-06 2.984503342161e-07 9.217626944584e-08 5.309108636954e-07 2.181119205181e-07 -1.980577831106e-07 -2.960768141028e-07 -2.117686375500e-08 -2.005893576724e-07 4.552864145575e-07 1.597973108791e-07 6.304451835915e-08 1.823261548752e-07 4.097292404458e-07 1.174171849167e-06 3.269990692578e-07 -1.959146070469e-07 1.157320722534e-07 1.617428831861e-07 6.973451602781e-09 -5.524370561342e-07 -3.981155874150e-07 -5.071215244364e-08 -2.493258331710e-08 8.620949178660e-07 3.914722482413e-07 -5.585524449559e-08 7.434810002257e-08 5.719686956281e-07 1.226616980005e-07 6.023485183592e-07 -2.315552773869e-07 2.832101927192e-07 9.837982200514e-07 -1.070722706596e-07 7.059696278267e-07 3.202966225366e-07 6.433027336841e-07 -7.686257608533e-08 1.924997197661e-07 2.350373679936e-07 -2.196691804944e-09 1.720796764875e-07 6.545675217114e-07 1.655196858597e-07 2.861936354962e-07 2.324844149969e-07 8.961922889395e-07 1.762858006596e-07 3.561174276308e-07 -7.110654714109e-07 8.146949163928e-07 2.662980837365e-07 2.240520849806e-07 4.318694295325e-07 -7.232208656352e-07 2.347637667571e-07 5.103045966777e-07 -3.585020490467e-07 -2.894235775553e-08 2.418220806844e-07 1.212260397759e-06 4.151783494539e-07 -1.990423229765e-08 -1.032946761262e-06 -1.472834546477e-07 4.747015078608e-07 1.540470641318e-07 3.540276289619e-07 2.209266145451e-07 -4.230526687811e-08 6.442789257057e-07 -1.985902801183e-07 2.536616505063e-07 2.124449796458e-07 1.800331802279e-07 7.213572725968e-07 8.384348202070e-07 -4.521344816774e-07 5.305029237232e-08 1.806465491599e-07 1.354611015237e-06 3.725469188548e-07 5.375445529175e-07 2.561342076892e-07 1.457545615223e-07 -1.249593272954e-07 8.166768483386e-07 6.733063188442e-07 1.924593583875e-07 -2.958618719213e-08 5.438535924479e-07 1.850471532240e-07 -1.387680533535e-07 1.672898759948e-07 5.350549707473e-07 -3.355927133223e-08 2.120311017551e-07 1.171430048094e-06 1.707025585564e-08 3.416183308346e-07 -7.248772727538e-07 1.405984819764e-06 2.225956549874e-07 1.128359356102e-07 3.014036235320e-07 -5.674519226595e-07 -1.040951120673e-06 2.973706609922e-07 2.111521508468e-07 6.845210952445e-07 1.454153503805e-06 8.915431725632e-08 -6.953346352712e-07 -4.167137971613e-10 2.595964152945e-08 6.661622111175e-07 1.213574457853e-07 8.932958959397e-07 6.719375847129e-07 2.596763287130e-07 6.991624696142e-07 -5.417920930401e-07 5.339304743585e-07 1.374865676591e-08 5.032806295712e-07 1.272188240077e-07 1.393800043613e-06 1.147668200836e-07 -1.233389523751e-07 -1.105047740917e-06 5.273884261259e-07 -1.932116136852e-07 -3.426786160994e-07 3.446844680406e-07 9.185109175873e-08 1.488525184256e-07 1.395674224771e-07 -2.607976419654e-08 3.689410637131e-07 5.179497227638e-07 9.550147958797e-07 7.672684643836e-08 1.750216754212e-08 3.328323900305e-07 9.678641948413e-08 3.303641468900e-07 
        </DataArray>
        <DataArray type="Float64" Name="STRAIN_XX" format="ascii">
          7.320003658357e-04 7.320004997670e-04 7.320004457957e-04 7.319993678367e-04 7.319993396074e-04 7.319992967492e-04 7.319993645930e-04 7.319994796169e-04 7.319993979867e-04 7.320002500116e-04 7.320001963868e-04 7.320000949536e-04 7.319997327031e-04 7.319996484856e-04 7.319995747009e-04 7.319991183923e-04 7.319993014883e-04 7.319991508649e-04 7.319993654877e-04 7.319991995613e-04 7.319994975545e-04 7.319995757417e-04 7.319995634257e-04 7.319989811552e-04 7.319989584937e-04 7.319989691301e-04 7.319994595691e-04 7.319992471361e-04 7.319993248909e-04 7.320003607244e-04 7.320002918241e-04 7.320000740277e-04 7.319999438132e-04 7.319997530280e-04 7.319999260081e-04 7.319993090765e-04 7.319994590719e-04 7.319991779295e-04 7.319997353625e-04 7.319998551854e-04 7.319995494974e-04 7.319995822260e-04 7.319995829989e-04 7.319994733333e-04 7.319990484017e-04 7.319989871894e-04 7.319988951406e-04 7.319994639030e-04 7.319994460316e-04 7.319995444918e-04 7.319995038509e-04 7.319992563293e-04 7.319997270244e-04 7.319995714068e-04 7.319991849644e-04 7.319993457797e-04 7.319992382497e-04 7.320002933569e-04 7.320001145426e-04 7.319999020261e-04 7.319998941032e-04 7.319992222892e-04 7.319991048194e-04 7.320000916620e-04 7.319999382721e-04 7.319991607629e-04 7.319991367490e-04 7.319995009498e-04 7.319994661133e-04 7.319998756362e-04 7.320000494000e-04 7.319999226493e-04 7.319998156590e-04 7.319997309235e-04 7.319995751460e-04 7.319995604826e-04 7.319990038940e-04 7.319990640614e-04 7.319996369319e-04 7.319997943270e-04 7.319995288281e-04 7.319994662590e-04 7.319995948384e-04 7.319991509371e-04 7.319990670432e-04 7.319998378056e-04 7.319997602033e-04 7.320001213249e-04 7.320001338299e-04 7.319994582370e-04 7.319991164096e-04 7.319997644012e-04 7.319994550961e-04 7.319998921881e-04 7.319997358299e-04 7.319989673727e-04 7.319996837123e-04 7.319996196279e-04 7.319993420430e-04 7.319990692437e-04 7.319996585325e-04 7.319995517570e-04 7.319989915553e-04 7.319995888539e-04 7.319993434702e-04 7.319990350803e-04 7.319993801326e-04 7.320000585282e-04 7.319995009238e-04 7.320003784246e-04 7.320003707487e-04 7.320003743486e-04 7.319997273484e-04 7.319997389277e-04 7.319996659286e-04 7.319996481123e-04 7.319997355645e-04 7.319997257976e-04 7.320002690093e-04 7.320001942656e-04 7.320001884391e-04 7.319998085761e-04 7.319997916968e-04 7.319997397463e-04 7.319993337232e-04 7.319995685312e-04 7.319994598869e-04 7.319996044974e-04 7.319993892058e-04 7.319998439705e-04 7.319998710702e-04 7.319999338952e-04 7.319992808789e-04 7.319993207819e-04 7.319992493903e-04 7.319995838079e-04 7.319994964854e-04 7.319995297972e-04 7.320003206364e-04 7.320003411377e-04 7.320003094755e-04 7.319999486767e-04 7.319998418326e-04 7.320000172398e-04 7.319996217624e-04 7.319997647434e-04 7.319995621798e-04 7.319998807304e-04 7.320000018781e-04 7.319997376660e-04 7.319998665733e-04 7.319998551389e-04 7.319997448605e-04 7.319992554189e-04 7.319992022130e-04 7.319991819411e-04 7.319996415658e-04 7.319996167444e-04 7.319997152146e-04 7.319996974958e-04 7.319995063955e-04 7.319998978405e-04 7.319997822183e-04 7.319994262978e-04 7.319996797740e-04 7.319995574941e-04 7.320002963583e-04 7.320002488333e-04 7.320001237278e-04 7.320001647868e-04 7.319995295535e-04 7.319994679656e-04 7.320002753242e-04 7.320001931975e-04 7.319995175588e-04 7.319994759317e-04 7.319997336419e-04 7.319996783554e-04 7.319999179104e-04 7.320000553961e-04 7.319999663017e-04 7.319999074671e-04 7.319998193844e-04 7.319997554878e-04 7.319998201343e-04 7.319993456693e-04 7.319993838440e-04 7.319999668840e-04 7.320000440263e-04 7.319997072518e-04 7.319996249540e-04 7.319997537496e-04 7.319994548228e-04 7.319994047515e-04 7.320000478460e-04 7.320000335497e-04 7.320001281561e-04 7.320001434801e-04 7.319997166535e-04 7.319994088004e-04 7.320000915585e-04 7.319995860729e-04 7.319999790200e-04 7.319999231989e-04 7.319992566874e-04 7.319997980051e-04 7.319997761600e-04 7.319995699400e-04 7.319993466842e-04 7.319999224063e-04 7.319998305718e-04 7.319992229124e-04 7.319997617427e-04 7.319994953027e-04 7.319992736014e-04 7.319994596846e-04 7.320000619597e-04 7.319996685296e-04 7.320004461149e-04 7.320003692445e-04 7.319999516299e-04 7.319998392809e-04 7.320002498067e-04 7.320002230898e-04 7.320001834936e-04 7.320002020330e-04 7.320002310947e-04 7.320002767625e-04 7.320013656075e-04 7.320015614526e-04 7.320015653290e-04 7.320003981233e-04 7.320005268002e-04 7.320007065533e-04 7.320001635136e-04 7.320004072399e-04 7.320002866239e-04 7.320000583700e-04 7.320001258757e-04 7.320001941422e-04 7.320002368005e-04 7.320003887743e-04 7.320003764571e-04 7.320001416362e-04 7.320002521828e-04 7.320002228022e-04 7.320001881212e-04 7.319999668820e-04 7.319999064843e-04 7.320001345074e-04 7.320000584610e-04 7.320000847391e-04 7.320013765674e-04 7.320016241502e-04 7.320016671524e-04 7.320009956346e-04 7.320012162019e-04 7.320013615831e-04 7.320003379590e-04 7.320003259075e-04 7.320003168160e-04 7.320001850811e-04 7.320001695800e-04 7.320002256533e-04 7.320004194454e-04 7.320005765158e-04 7.320005348589e-04 7.320006487279e-04 7.320007558143e-04 7.320010665407e-04 7.320001727499e-04 7.320001572679e-04 7.320001982782e-04 7.320003941373e-04 7.320004458480e-04 7.320005853022e-04 7.320002687482e-04 7.320002303268e-04 7.320011803112e-04 7.320014855821e-04 7.320012977407e-04 7.320006430991e-04 7.320006815642e-04 7.320007796149e-04 7.320002889557e-04 7.320003093279e-04 7.320002175159e-04 7.319996089504e-04 7.319998991207e-04 7.320008862851e-04 7.320010881520e-04 7.320010199191e-04 7.320009240842e-04 7.320009436890e-04 7.320010789790e-04 7.320009246592e-04 7.320008540030e-04 7.320010279880e-04 7.320008516569e-04 7.320006071125e-04 7.320009052755e-04 7.320008073441e-04 7.320000974631e-04 7.320001531136e-04 7.320000952193e-04 7.319999914512e-04 7.320002416997e-04 7.320002941702e-04 7.320002706997e-04 7.320002274390e-04 7.320004516399e-04 7.320004535350e-04 7.320004531392e-04 7.320004303144e-04 7.319999800037e-04 7.320000240696e-04 7.320000029205e-04 7.319999535817e-04 7.320002007066e-04 7.320003140266e-04 7.320003235236e-04 7.320004047176e-04 7.320005789589e-04 7.320003902048e-04 7.320001322759e-04 7.320002743768e-04 7.320002476208e-04 7.320001678007e-04 7.320001655714e-04 7.320001508542e-04 7.320002259728e-04 7.319998600270e-04 7.319996211558e-04 7.319999986400e-04 7.320001776982e-04 7.319998993177e-04 7.319998966127e-04 7.320002504752e-04 7.320004330595e-04 7.320002062515e-04 7.320002845540e-04 7.320005207377e-04 7.320005293090e-04 7.320007141351e-04 7.320006255525e-04 7.320001202755e-04 7.320001804037e-04 7.320002595564e-04 7.320003419105e-04 7.320000387886e-04 7.320001871590e-04 7.320013355736e-04 7.320016382020e-04 7.320015116597e-04 7.320012332744e-04 7.320011772947e-04 7.320005075481e-04 7.320004338726e-04 7.320002348809e-04 7.320014044467e-04 7.320011651033e-04 7.320011736306e-04 7.320012717353e-04 7.320010645322e-04 7.320004101107e-04 7.320003597439e-04 7.320003704880e-04 7.320003578269e-04 7.320003734605e-04 7.320004044900e-04 7.320003953469e-04 7.320002222415e-04 7.320002585475e-04 7.320002311685e-04 7.320002463099e-04 7.320002252209e-04 7.319997339963e-04 7.319997741125e-04 7.319998141685e-04 7.319999231571e-04 7.319999208728e-04 7.319999181446e-04 7.319999337930e-04 7.319999034831e-04 7.319999186607e-04 7.320004342017e-04 7.320005428107e-04 7.320004829559e-04 7.320004098686e-04 7.320003419327e-04 7.320003345804e-04 7.320003506151e-04 7.320008401920e-04 7.320003154301e-04 7.320003807059e-04 7.320001689525e-04 7.320001283493e-04 7.320001368165e-04 7.320002965447e-04 7.320002649597e-04 7.320002649252e-04 7.320002872568e-04 7.320002479642e-04 7.320002292069e-04 7.320003899962e-04 7.320004573669e-04 7.320005651789e-04 7.320004825729e-04 7.320004098307e-04 7.319999628352e-04 7.319998944683e-04 7.319999526643e-04 7.320000091503e-04 7.320003547633e-04 7.320003451263e-04 7.320002652192e-04 7.320004301181e-04 7.320001789032e-04 7.320001855420e-04 7.320001996870e-04 7.320006829615e-04 7.320006726070e-04 7.320005371563e-04 7.320002013122e-04 7.320001903124e-04 7.320006501819e-04 7.320005535433e-04 7.320000296501e-04 7.319999882653e-04 7.320000552463e-04 7.320000669796e-04 7.320003954240e-04 7.320003982889e-04 7.320003593305e-04 7.320003675194e-04 7.320002801600e-04 7.320002630327e-04 7.320002904304e-04 7.320002791576e-04 7.320002620908e-04 7.320003005192e-04 7.320003075106e-04 7.320002798469e-04 7.320003012313e-04 7.320001228258e-04 7.320000730138e-04 7.320001448951e-04 7.320001670865e-04 7.320000464933e-04 7.320000210051e-04 7.319999245219e-04 7.320003700063e-04 7.320004258822e-04 7.319999350093e-04 7.319999548191e-04 7.319999490400e-04 7.320000511027e-04 7.320000044016e-04 7.320000672633e-04 7.320000882629e-04 7.320001006514e-04 7.320000082067e-04 7.319999920662e-04 7.320001175660e-04 7.320000416685e-04 7.320002123981e-04 7.320002018926e-04 7.320003173223e-04 7.320004192388e-04 7.319997158876e-04 7.319999287795e-04 7.320003836950e-04 7.320003615483e-04 7.319999208239e-04 7.320000643132e-04 7.320003848067e-04 7.320002845907e-04 7.320002868030e-04 7.320003616139e-04 7.320005810314e-04 7.320004583554e-04 7.320003482058e-04 7.320002967459e-04 7.320003141656e-04 7.320002757388e-04 7.320002353597e-04 7.320002612657e-04 7.320002200968e-04 7.320002199428e-04 7.320004149490e-04 7.320001406183e-04 7.320001472674e-04 7.320001635888e-04 7.320001575662e-04 7.320001170032e-04 7.319996901222e-04 7.319999982443e-04 7.320005891451e-04 7.320005038736e-04 7.320005300894e-04 7.320006005152e-04 7.320000736552e-04 7.320000372424e-04 7.320011142303e-04 7.320001985081e-04 7.320001681025e-04 7.320003522343e-04 7.320003338391e-04 7.320008105527e-04 7.320008351105e-04 7.320014599795e-04 7.320016878200e-04 7.320004828605e-04 7.320005465040e-04 7.320005507341e-04 7.320004212141e-04 7.320001570732e-04 7.320003072096e-04 7.320000970145e-04 7.319998585462e-04 7.319998622670e-04 7.319998562280e-04 7.319996789683e-04 7.319996280185e-04 7.319996407577e-04 7.320001742435e-04 7.319999359910e-04 7.319997777786e-04 7.320002249130e-04 7.320002554852e-04 7.320003719803e-04 7.320002599708e-04 7.320004358731e-04 7.320001166447e-04 7.320000603186e-04 7.320001909646e-04 7.320000752601e-04 7.320006244007e-04 7.320007247280e-04 7.320005919101e-04 7.320006455379e-04 7.320002175264e-04 7.320012437201e-04 7.320014812064e-04 7.320009647438e-04 7.320010605849e-04 7.320001716732e-04 7.320001907575e-04 7.320002157854e-04 7.320001641861e-04 7.320001538074e-04 7.320002143591e-04 7.320002747555e-04 7.320001382559e-04 7.320001307240e-04 7.320001052404e-04 7.319999857341e-04 7.319999319765e-04 7.319999705787e-04 7.320010583314e-04 7.320012948436e-04 7.320008091867e-04 7.320000734348e-04 7.320001264652e-04 7.320000897303e-04 7.320000728360e-04 7.319998690516e-04 7.319999213156e-04 7.320001177028e-04 7.319999389156e-04 7.320002033868e-04 7.319998763155e-04 7.319998852069e-04 7.319999099075e-04 7.319997466381e-04 7.319996150644e-04 7.319996708150e-04 7.320004120186e-04 7.320004033557e-04 7.320004031994e-04 7.320005776235e-04 7.320005417684e-04 7.320000868203e-04 7.320000289575e-04 7.320005271517e-04 7.320003392563e-04 7.320004358787e-04 7.320007781822e-04 7.320003571517e-04 7.320005062182e-04 7.320003909220e-04 7.320002751185e-04 7.320013280625e-04 7.320011604369e-04 7.320003226515e-04 7.320002171007e-04 7.320003094745e-04 7.320002549908e-04 7.320001869913e-04 7.320001566331e-04 7.320002182224e-04 7.320005597241e-04 7.320011075024e-04 7.320009731979e-04 7.320009495913e-04 7.320003131355e-04 7.320002990851e-04 7.320002020128e-04 7.320003730574e-04 7.320004490477e-04 7.320006171670e-04 7.320000445750e-04 7.320002644636e-04 7.319998107091e-04 7.319999280852e-04 7.319998434084e-04 7.320001701423e-04 7.320000699995e-04 7.320000050210e-04 7.319999688160e-04 7.319999307473e-04 7.319999123097e-04 7.320001758432e-04 7.320001802860e-04 7.320002718889e-04 7.319998674521e-04 7.319999752243e-04 7.320002840255e-04 7.320003148186e-04 7.319999732368e-04 7.320000716892e-04 7.320003478596e-04 7.320003441101e-04 7.320003175004e-04 7.320002544813e-04 7.319999258026e-04 7.319999466607e-04 7.320014125825e-04 7.320001716866e-04 7.320002824247e-04 7.320000335923e-04 7.320000258215e-04 7.319999299995e-04 7.319999774419e-04 7.319999264836e-04 7.319998663991e-04 7.320005538173e-04 7.320007427706e-04 7.320001925872e-04 7.320003052551e-04 7.320002820841e-04 7.319999983358e-04 7.320002417527e-04 7.320003002014e-04 7.320003575058e-04 7.319999837750e-04 7.320002820953e-04 7.320000361846e-04 7.319999043974e-04 7.320003874618e-04 7.320002173346e-04 7.320004211418e-04 7.319998186874e-04 7.319998798114e-04 7.319999171511e-04 7.320009807966e-04 7.320002119266e-04 7.320007421032e-04 7.320006340337e-04 7.320001953764e-04 7.320003481633e-04 7.320000816644e-04 7.320001467734e-04 7.320000606776e-04 7.320010443926e-04 7.320008536714e-04 7.320008506233e-04 7.319997884035e-04 7.319999020466e-04 7.319998699292e-04 7.319999849155e-04 7.320000806269e-04 7.319999725875e-04 7.320008336440e-04 7.320008329947e-04 7.320001257379e-04 7.320002064976e-04 7.320005434698e-04 7.320001724787e-04 7.320002025511e-04 7.320007572362e-04 7.320007450519e-04 7.320001843386e-04 7.320002673125e-04 7.320005546039e-04 7.320013216921e-04 7.320008956605e-04 7.320007220893e-04 7.320007537105e-04 7.320001488668e-04 7.320001524052e-04 7.320000557850e-04 7.320007021551e-04 7.320006878425e-04 7.320010997942e-04 7.320012498763e-04 7.320004115602e-04 7.320002991103e-04 7.319999047976e-04 7.319998015023e-04 7.319995956718e-04 7.319998656380e-04 7.320001495756e-04 7.320015167098e-04 7.320017540014e-04 7.319999326761e-04 7.319999296193e-04 7.319999664427e-04 7.320004640477e-04 7.320006411402e-04 7.320005857476e-04 7.320003776610e-04 7.320002645822e-04 7.319997071979e-04 7.319999302698e-04 7.320009995052e-04 7.320001308806e-04 7.319999683187e-04 7.320004437455e-04 7.320000485368e-04 7.319999484281e-04 7.319997292211e-04 7.320002286056e-04 7.319998732058e-04 7.320000817537e-04 7.320007073829e-04 7.320008498169e-04 7.320001462344e-04 7.320005872944e-04 7.320008444242e-04 7.320006478559e-04 7.320000348027e-04 7.320012169751e-04 7.320004550517e-04 7.320006464024e-04 7.320003385240e-04 7.320002694743e-04 7.320002961784e-04 7.320002847272e-04 7.320014436223e-04 7.320001000188e-04 7.320002358319e-04 7.320001549766e-04 7.320000731064e-04 7.320002160063e-04 7.320003416390e-04 7.320001762255e-04 7.319999971773e-04 7.320003357971e-04 7.320003606659e-04 7.320005661420e-04 7.320007090770e-04 7.320001189450e-04 7.320002953004e-04 7.320003162527e-04 7.320003890210e-04 7.320003348369e-04 7.319998640566e-04 7.320001986422e-04 7.319995751600e-04 7.320007248623e-04 7.319999305716e-04 7.320003122888e-04 7.320011669971e-04 7.320003231408e-04 7.319999470626e-04 7.319999305334e-04 7.320001839678e-04 7.320003082812e-04 7.320000295292e-04 7.319996726130e-04 7.319999721367e-04 7.319999735342e-04 7.320000716150e-04 7.320001123097e-04 7.320012474789e-04 7.320008592719e-04 7.320010732198e-04 7.320001918759e-04 7.319999076269e-04 7.319996556185e-04 7.319998652442e-04 7.320001593098e-04 7.320002920548e-04 7.320009983175e-04 7.320004801506e-04 7.320003208322e-04 7.320001951086e-04 7.320004241637e-04 7.319998269430e-04 7.319998957229e-04 7.320011662252e-04 7.320004105890e-04 7.320003212606e-04 7.320007856473e-04 7.320003643660e-04 7.320002108361e-04 7.320005046665e-04 7.320000047234e-04 7.319999829479e-04 7.319999221426e-04 7.320010484229e-04 7.320009572829e-04 7.320003676282e-04 7.320003248279e-04 7.320001647059e-04 7.320003747474e-04 7.320000899531e-04 7.320001222869e-04 7.320000707525e-04 7.320003715241e-04 7.319999480567e-04 7.320000000206e-04 7.320004259378e-04 7.319999272419e-04 7.320006850180e-04 7.319997415441e-04 7.320000505455e-04 7.320002145560e-04 7.320003321878e-04 7.320003118302e-04 7.320002405238e-04 7.320001936585e-04 7.320002247828e-04 7.320003031515e-04 7.320002286812e-04 7.320002367430e-04 7.320003029625e-04 7.320002333236e-04 7.320002841692e-04 7.320003443203e-04 7.320002935811e-04 7.320002925387e-04 7.320003168412e-04 7.320002627382e-04 7.320002697711e-04 7.320002635815e-04 7.320002131377e-04 7.320001925763e-04 7.320002124237e-04 7.320001602123e-04 7.320001482413e-04 7.320001720881e-04 7.320000906098e-04 7.320001448909e-04 7.320002019509e-04 7.320001494371e-04 7.320001790801e-04 7.320002963864e-04 7.320002300076e-04 7.320002453056e-04 7.320002726028e-04 7.320002474769e-04 7.320002301546e-04 7.320000144777e-04 7.320000552495e-04 7.319999715862e-04 7.320003158398e-04 7.320002576861e-04 7.320002455008e-04 7.320002178568e-04 7.320002003466e-04 7.320001747611e-04 7.320000241971e-04 7.320000026431e-04 7.320000562226e-04 7.320000451728e-04 7.320001076154e-04 7.320000829650e-04 7.320001825049e-04 7.320001429388e-04 7.320001700783e-04 7.320003438955e-04 7.320002750001e-04 7.320002861110e-04 7.320003161057e-04 7.320002566421e-04 7.320002964828e-04 7.320001320111e-04 7.320001630976e-04 7.320001354571e-04 7.320000037780e-04 7.319999839029e-04 7.320000081404e-04 7.320000901721e-04 7.320000825021e-04 7.320000942342e-04 7.320003603657e-04 7.320002601242e-04 7.320003609393e-04 7.320003704732e-04 7.320002947541e-04 7.320002768034e-04 7.320002365546e-04 7.320002090583e-04 7.320001199192e-04 7.320001151207e-04 7.320001823094e-04 7.320001149825e-04 7.320002828132e-04 7.320003352438e-04 7.320003178021e-04 7.320002104385e-04 7.320002460394e-04 7.320003012859e-04 7.320001943213e-04 7.320000070501e-04 7.320002191214e-04 7.320000381217e-04 7.319999995989e-04 7.320001147900e-04 7.320000369237e-04 7.320002595832e-04 7.320001711978e-04 7.320003042997e-04 7.320003413731e-04 7.320002810910e-04 7.320003209286e-04 7.320001803456e-04 7.320001571539e-04 7.320001825045e-04 7.320001243133e-04 7.320002057886e-04 7.320001514059e-04 7.320001391533e-04 7.320001814159e-04 7.320001181884e-04 7.320001120021e-04 7.320001897760e-04 7.320001380387e-04 7.320001458782e-04 7.320001975874e-04 7.320001276404e-04 7.320001257106e-04 7.320002364970e-04 7.320001558891e-04 7.320001439529e-04 7.320001016289e-04 7.320000841209e-04 7.320001826557e-04 7.320001302360e-04 7.320001035538e-04 7.320000640649e-04 7.320000513284e-04 7.320000616978e-04 7.320001034319e-04 7.320000274136e-04 7.320000604055e-04 7.320000984999e-04 7.320000360267e-04 7.320000466318e-04 7.320001120392e-04 7.320000793606e-04 7.320000597565e-04 7.320001199787e-04 7.320000607342e-04 7.320000984085e-04 7.320000729027e-04 7.320000515420e-04 7.320000415785e-04 7.320000719182e-04 7.320000451414e-04 7.320000693506e-04 7.320001026204e-04 7.320000654552e-04 7.320000510575e-04 7.320000881118e-04 7.320000508250e-04 7.320000733562e-04 7.320001949441e-04 7.320001338423e-04 7.320001202183e-04 7.320002168279e-04 7.320001682524e-04 7.320001844831e-04 7.320001821905e-04 7.320001310327e-04 7.320001642642e-04 7.320001627828e-04 7.320001068343e-04 7.320000901035e-04 7.320002393533e-04 7.320001888859e-04 7.320001665902e-04 7.320002358829e-04 7.320001861907e-04 7.320001884398e-04 7.320000159660e-04 7.320000607173e-04 7.320000656193e-04 7.320002209261e-04 7.320001493728e-04 7.320002464597e-04 7.320001951728e-04 7.320000934544e-04 7.320000482308e-04 7.320002043915e-04 7.320001379611e-04 7.320000968179e-04 7.320001844975e-04 7.320001791869e-04 7.320001602456e-04 7.320001998934e-04 7.320001142717e-04 7.320000975755e-04 7.320001371252e-04 7.320001894192e-04 7.320001386178e-04 7.320002236246e-04 7.320000433927e-04 7.320002050125e-04 7.320000904903e-04 7.320000644939e-04 7.320000308781e-04 7.320000150265e-04 7.320002382945e-04 7.320000919163e-04 7.320002268857e-04 7.320001809373e-04 7.320001010257e-04 7.320002362563e-04 7.320002778722e-04 7.320000001406e-04 7.320000847941e-04 7.320000356627e-04 7.320000202319e-04 7.320000793044e-04 7.320000152771e-04 7.319999995990e-04 7.320000759744e-04 7.320000179026e-04 7.320000173917e-04 7.320000823610e-04 7.320000223098e-04 7.320000179584e-04 7.320000500952e-04 7.320000136975e-04 7.319999875080e-04 7.320000624901e-04 7.319999962833e-04 7.320000030479e-04 7.319999751325e-04 7.319999380669e-04 7.319999248386e-04 7.320000197633e-04 7.320000070408e-04 7.319999684673e-04 7.320000404554e-04 7.319999805346e-04 7.319999731189e-04 7.320000670129e-04 7.320000037504e-04 7.319999841807e-04 7.320001104431e-04 7.320000427849e-04 7.320000113127e-04 7.320000972556e-04 7.320000183804e-04 7.320000609599e-04 7.320000123880e-04 7.319999389938e-04 7.319999300407e-04 7.320000103379e-04 7.319999228996e-04 7.319999534935e-04 7.320000299286e-04 7.319999707791e-04 7.319999694490e-04 7.320000439919e-04 7.320000230698e-04 7.319999961221e-04 7.320000141422e-04 7.319999708047e-04 7.319999717646e-04 7.320000340476e-04 7.319999676233e-04 7.319999927048e-04 7.320000130565e-04 7.319999642353e-04 7.319999959621e-04 7.320000438536e-04 7.319999880499e-04 7.319999753016e-04 7.320001376641e-04 7.320000641587e-04 7.320000595409e-04 7.320001340486e-04 7.320000695820e-04 7.320000611189e-04 7.320001236846e-04 7.320000654449e-04 7.319999701959e-04 7.319999371817e-04 7.320000093993e-04 7.319999560481e-04 7.320000351822e-04 7.319999795910e-04 7.320000290142e-04 7.320000081567e-04 7.320000153917e-04 7.319999475627e-04 7.320000338514e-04 7.320000613432e-04 7.320000771282e-04 7.320000613311e-04 7.320000881679e-04 7.320000615839e-04 7.320000348999e-04 7.320000850990e-04 7.320000388240e-04 7.319999968375e-04 7.320000538194e-04 7.320000321110e-04 7.320000166597e-04 7.320000133270e-04 7.320001226745e-04 7.320001319631e-04 7.320000276911e-04 7.320001035714e-04 7.320000059253e-04 7.320000593527e-04 7.320000078292e-04 7.320000207658e-04 7.320001150883e-04 7.319997763303e-04 7.319998970902e-04 7.319999534972e-04 7.319998860525e-04 7.319998885511e-04 7.319999272741e-04 7.319998690701e-04 7.319998776592e-04 7.319999485552e-04 7.319998824394e-04 7.319998846665e-04 7.319999236546e-04 7.319998687812e-04 7.319998594680e-04 7.319999393150e-04 7.319998767173e-04 7.319998832051e-04 7.319998470765e-04 7.319997737561e-04 7.319998033043e-04 7.319998719515e-04 7.319998081081e-04 7.319998081135e-04 7.319998877146e-04 7.319998288073e-04 7.319998315250e-04 7.319998613803e-04 7.319998247663e-04 7.319998442957e-04 7.319999100639e-04 7.319998601014e-04 7.319998672931e-04 7.319998985961e-04 7.319998448375e-04 7.319998267786e-04 7.319999961004e-04 7.319999455356e-04 7.319999472943e-04 7.320000009360e-04 7.319999468809e-04 7.319999366944e-04 7.319999915919e-04 7.319999532425e-04 7.319999713083e-04 7.319999619760e-04 7.319999322148e-04 7.319999227047e-04 7.319999606876e-04 7.319999073457e-04 7.319999193542e-04 7.319999171171e-04 7.319998572230e-04 7.319998680802e-04 7.319999339730e-04 7.319998567190e-04 7.319998863997e-04 7.319999837501e-04 7.319999305162e-04 7.319999272709e-04 7.319999640856e-04 7.319998942992e-04 7.319999043504e-04 7.319999907240e-04 7.319999476818e-04 7.319999482257e-04 7.319999283513e-04 7.319999025553e-04 7.319998873939e-04 7.319999565345e-04 7.319998926866e-04 7.319999511477e-04 7.319999994830e-04 7.319999367471e-04 7.319999102806e-04 7.319998764864e-04 7.319999234262e-04 7.319998764145e-04 7.319999212285e-04 7.319998494862e-04 7.319998756723e-04 7.319999152499e-04 7.319999383400e-04 7.319999218615e-04 7.319999267368e-04 7.319998756171e-04 7.319999026861e-04 7.319999753351e-04 7.319998755312e-04 7.319999589287e-04 7.319999751882e-04 7.319999462583e-04 7.319999556289e-04 7.319999764760e-04 7.319999600812e-04 7.320000165966e-04 7.319998640502e-04 7.319999613121e-04 7.320000139122e-04 7.319999072112e-04 7.319999032281e-04 7.319998982743e-04 7.319996202523e-04 7.319997741106e-04 7.319997953276e-04 7.319997345682e-04 7.319997288396e-04 7.319997999287e-04 7.319997380681e-04 7.319997312140e-04 7.319997858752e-04 7.319997300744e-04 7.319997248599e-04 7.319997891419e-04 7.319997445872e-04 7.319997400409e-04 7.319998006115e-04 7.319997551000e-04 7.319997625091e-04 7.319996829119e-04 7.319996133255e-04 7.319996413648e-04 7.319997426960e-04 7.319996681469e-04 7.319996506755e-04 7.319997541828e-04 7.319997096978e-04 7.319997293718e-04 7.319997842799e-04 7.319997428537e-04 7.319997186678e-04 7.319997573386e-04 7.319997327737e-04 7.319997457284e-04 7.319998721436e-04 7.319997981963e-04 7.319998216648e-04 7.319998595726e-04 7.319998020904e-04 7.319998182405e-04 7.319999155313e-04 7.319998516208e-04 7.319998832076e-04 7.319997826755e-04 7.319997475372e-04 7.319997443884e-04 7.319998771505e-04 7.319998669896e-04 7.319998581944e-04 7.319999042916e-04 7.319998833998e-04 7.319998635008e-04 7.319998412372e-04 7.319998174125e-04 7.319997935898e-04 7.319998000496e-04 7.319997565566e-04 7.319997533380e-04 7.319998115083e-04 7.319997262832e-04 7.319997414697e-04 7.319998029863e-04 7.319997524270e-04 7.319998037595e-04 7.319999044771e-04 7.319998644186e-04 7.319998465616e-04 7.319997882165e-04 7.319997076710e-04 7.319996418345e-04 7.319998753452e-04 7.319998515614e-04 7.319998677280e-04 7.319998363236e-04 7.319999329614e-04 7.319998874415e-04 7.319997832320e-04 7.319997247315e-04 7.319997744657e-04 7.319997635150e-04 7.319998181393e-04 7.319997813487e-04 7.319997357500e-04 7.319996827125e-04 7.319996781628e-04 7.319997850454e-04 7.319997874384e-04 7.319997905785e-04 7.319997931115e-04 7.319997662882e-04 7.319998792141e-04 7.319998283633e-04 7.319998019019e-04 7.319996849173e-04 7.319998761486e-04 7.319998559149e-04 7.319997811957e-04 7.319997813693e-04 7.319999077728e-04 7.319998034139e-04 7.319999149692e-04 7.319998518695e-04 7.319997210718e-04 7.319997321225e-04 7.319994639870e-04 7.319996569203e-04 7.319995932635e-04 7.319996220788e-04 7.319996544149e-04 7.319996214448e-04 7.319995825860e-04 7.319996500276e-04 7.319996012818e-04 7.319996014255e-04 7.319996821301e-04 7.319996620139e-04 7.319996308547e-04 7.319997172563e-04 7.319997021384e-04 7.319996618564e-04 7.319995417957e-04 7.319995146499e-04 7.319994961320e-04 7.319996786192e-04 7.319996335448e-04 7.319996396433e-04 7.319996585821e-04 7.319996294276e-04 7.319996254452e-04 7.319997484333e-04 7.319997238245e-04 7.319996876908e-04 7.319995632738e-04 7.319995742621e-04 7.319995933897e-04 7.319996340816e-04 7.319995871690e-04 7.319995698069e-04 7.319998286673e-04 7.319998045549e-04 7.319997924823e-04 7.319998480964e-04 7.319998256920e-04 7.319998400114e-04 7.319998026014e-04 7.319997672741e-04 7.319997641202e-04 7.319996886163e-04 7.319996465480e-04 7.319996678686e-04 7.319995699023e-04 7.319995271234e-04 7.319995314495e-04 7.319996406243e-04 7.319996114407e-04 7.319995992880e-04 7.319996423334e-04 7.319996114184e-04 7.319996429863e-04 7.319996940435e-04 7.319996789054e-04 7.319996445142e-04 7.319998273178e-04 7.319998108286e-04 7.319998077600e-04 7.319997530314e-04 7.319997169094e-04 7.319997375650e-04 7.319996430391e-04 7.319995537631e-04 7.319997150250e-04 7.319997565961e-04 7.319996782231e-04 7.319998000920e-04 7.319997806964e-04 7.319996530471e-04 7.319996419600e-04 7.319998430439e-04 7.319997731701e-04 7.319996301802e-04 7.319995719548e-04 7.319995233115e-04 7.319997152745e-04 7.319996976818e-04 7.319996520603e-04 7.319996818008e-04 7.319996557806e-04 7.319996618785e-04 7.319995370951e-04 7.319996677273e-04 7.319996498798e-04 7.319998297519e-04 7.319998341177e-04 7.319997947559e-04 7.319996345064e-04 7.319996114072e-04 7.319996050667e-04 7.319996396162e-04 7.319996646758e-04 7.319997759485e-04 7.319997450555e-04 7.319996264647e-04 7.319998122991e-04 7.319997507154e-04 7.319994267873e-04 7.319997273036e-04 7.319995250977e-04 7.319995308410e-04 7.319995016130e-04 7.319995776036e-04 7.319995670777e-04 7.319995983947e-04 7.319996443642e-04 7.319996445662e-04 7.319996712719e-04 7.319994808611e-04 7.319994658869e-04 7.319994728729e-04 7.319995122597e-04 7.319994431865e-04 7.319994705034e-04 7.319994531322e-04 7.319994836695e-04 7.319994981031e-04 7.319995215290e-04 7.319995168397e-04 7.319995195675e-04 7.319995306170e-04 7.319995085155e-04 7.319994607855e-04 7.319995198664e-04 7.319995158751e-04 7.319995187418e-04 7.319995904083e-04 7.319995740575e-04 7.319995986699e-04 7.319995602598e-04 7.319995175129e-04 7.319995596992e-04 7.319996633907e-04 7.319995990421e-04 7.319996585823e-04 7.319997804564e-04 7.319997564389e-04 7.319997800091e-04 7.319997947615e-04 7.319997754858e-04 7.319997711362e-04 7.319997404419e-04 7.319997311025e-04 7.319997259404e-04 7.319996030193e-04 7.319996202275e-04 7.319995720037e-04 7.319995311719e-04 7.319994754781e-04 7.319995032909e-04 7.319995692895e-04 7.319995896265e-04 7.319995555294e-04 7.319995430269e-04 7.319995069545e-04 7.319994805235e-04 7.319997543465e-04 7.319997450913e-04 7.319997486456e-04 7.319996961650e-04 7.319997177125e-04 7.319997010192e-04 7.319996913940e-04 7.319995273413e-04 7.319995341885e-04 7.319995644551e-04 7.319994807805e-04 7.319995922214e-04 7.319995602180e-04 7.319994695010e-04 7.319994686445e-04 7.319994252666e-04 7.319997339462e-04 7.319997192082e-04 7.319996680332e-04 7.319996647056e-04 7.319997993538e-04 7.319997785495e-04 7.319994856459e-04 7.319995006669e-04 7.319996121209e-04 7.319995771159e-04 7.319995543966e-04 7.319995909413e-04 7.319995733335e-04 7.319995132225e-04 7.319997258710e-04 7.319997372939e-04 7.319997942362e-04 7.319995738796e-04 7.319995138907e-04 7.319995505586e-04 7.319995708562e-04 7.319997756038e-04 7.319995426457e-04 7.319997930597e-04 7.319996367556e-04 7.319994829530e-04 7.319997361479e-04 7.319993871888e-04 7.319995556713e-04 7.319996570098e-04 7.319995704764e-04 7.319996800774e-04 7.319997284462e-04 7.319996972145e-04 7.319994050338e-04 7.319994053060e-04 7.319994435690e-04 7.319993733690e-04 7.319993918702e-04 7.319993844689e-04 7.319994351934e-04 7.319994845653e-04 7.319994176363e-04 7.319995059832e-04 7.319994930888e-04 7.319995691458e-04 7.319995129431e-04 7.319994975997e-04 7.319995062465e-04 7.319994189252e-04 7.319994767190e-04 7.319993984730e-04 7.319995684033e-04 7.319996081515e-04 7.319995440687e-04 7.319994750847e-04 7.319995044984e-04 7.319995159748e-04 7.319997621285e-04 7.319998402983e-04 7.319997786498e-04 7.319997534240e-04 7.319997445609e-04 7.319997515966e-04 7.319997111962e-04 7.319997383667e-04 7.319997116446e-04 7.319997186252e-04 7.319997164551e-04 7.319997781429e-04 7.319994517997e-04 7.319994857302e-04 7.319994596284e-04 7.319993956641e-04 7.319994092389e-04 7.319994458462e-04 7.319994851987e-04 7.319994995683e-04 7.319994524908e-04 7.319995020336e-04 7.319994967807e-04 7.319993476852e-04 7.319993975058e-04 7.319994091460e-04 7.319996891925e-04 7.319997171502e-04 7.319997335786e-04 7.319996340530e-04 7.319996158542e-04 7.319996922350e-04 7.319994446235e-04 7.319994979821e-04 7.319994768153e-04 7.319994187167e-04 7.319994441118e-04 7.319994485500e-04 7.319997040971e-04 7.319995151038e-04 7.319995169366e-04 7.319997571981e-04 7.319997773480e-04 7.319996437406e-04 7.319996653305e-04 7.319994073736e-04 7.319994106524e-04 7.319993830543e-04 7.319993817306e-04 7.319996306759e-04 7.319994534088e-04 7.319994920339e-04 7.319995736605e-04 7.319994570176e-04 7.319994312954e-04 7.319994546918e-04 7.319994365668e-04 7.319995015457e-04 7.319993919202e-04 7.319997298640e-04 7.319997071347e-04 7.319997305389e-04 7.319994043815e-04 7.319996746901e-04 7.319994725337e-04 7.319994564696e-04 7.319994830032e-04 7.319997644622e-04 7.319996816506e-04 7.319993946394e-04 7.319997335791e-04 7.320002894772e-04 7.319996883307e-04 7.319994936563e-04 7.319995332990e-04 7.319994086296e-04 7.319995755926e-04 7.319994436404e-04 7.319995666583e-04 7.319994326612e-04 7.319998290778e-04 7.319995473366e-04 7.319997893887e-04 7.319995489648e-04 7.319994876513e-04 7.319997735276e-04 7.320000737371e-04 7.319994158999e-04 7.320000946986e-04 7.320002566125e-04 7.320001959140e-04 7.320007607010e-04 7.319997473526e-04 7.320006125195e-04 7.319995829067e-04 7.319995735849e-04 7.319995978084e-04 7.320007624719e-04 7.319992973781e-04 7.319990117063e-04 7.320004214465e-04 7.320008914615e-04 7.319997500588e-04 7.319997155737e-04 7.319998447243e-04 7.319996537711e-04 7.319996962470e-04 7.319996854064e-04 7.319995449398e-04 7.320000225586e-04 7.320000733626e-04 7.320000923690e-04 7.319999553366e-04 7.319994467963e-04 7.319994623384e-04 7.319994792927e-04 7.319994274891e-04 7.319993885237e-04 7.319994043984e-04 7.319994186346e-04 7.319993793720e-04 7.320000578424e-04 7.320001569437e-04 7.320000806209e-04 7.320001229146e-04 7.320006335466e-04 7.319997366178e-04 7.319994225062e-04 7.319997045622e-04 7.319996670989e-04 7.319996888456e-04 7.319997302055e-04 7.319995316879e-04 7.319994948362e-04 7.319995698468e-04 7.319997331141e-04 7.319997009290e-04 7.319994402859e-04 7.319990033610e-04 7.319992094260e-04 7.319991529918e-04 7.319995053381e-04 7.319998295119e-04 7.319995072285e-04 7.319994614639e-04 7.319995156088e-04 7.320003675320e-04 7.320000224056e-04 7.320000270501e-04 7.320002974213e-04 7.319995890509e-04 7.319999533314e-04 7.319998269549e-04 7.319999361327e-04 7.320000231494e-04 7.319998444639e-04 7.319999478364e-04 7.320000090981e-04 7.319991773872e-04 7.319992365234e-04 7.319992056761e-04 7.319993974322e-04 7.319994157095e-04 7.319993704915e-04 7.319994149308e-04 7.319993436531e-04 7.319994413993e-04 7.320000673015e-04 7.320001112932e-04 7.319999880254e-04 7.319996096115e-04 7.319995939849e-04 7.319996719837e-04 7.319996460816e-04 7.319996147491e-04 7.319995679588e-04 7.319996725297e-04 7.319996029305e-04 7.320006544667e-04 7.320004458700e-04 7.320004560952e-04 7.320006092608e-04 7.320004151606e-04 7.320003082328e-04 7.319993591925e-04 7.319993444499e-04 7.319993503222e-04 7.319993662988e-04 7.319993204342e-04 7.319992951399e-04 7.319993829728e-04 7.319997844564e-04 7.319998106467e-04 7.319997255364e-04 7.319994400105e-04 7.319997850769e-04 7.319997919372e-04 7.319998900865e-04 7.319999241571e-04 7.319998393805e-04 7.319998852102e-04 7.319998459956e-04 7.319999649331e-04 7.319997671916e-04 7.319997751010e-04 7.319999993926e-04 7.319999441376e-04 7.319994678947e-04 7.319994704740e-04 7.319994162323e-04 7.319995034408e-04 7.319994330037e-04 7.319994437341e-04 7.319994759007e-04 7.319993829708e-04 7.320000565480e-04 7.320001977679e-04 7.320001968183e-04 7.319999604510e-04 7.319995108870e-04 7.319995608368e-04 7.319995446496e-04 7.319995235773e-04 7.320003476639e-04 7.320001962499e-04 7.320001975531e-04 7.319997671646e-04 7.319997320226e-04 7.320003585548e-04 7.320003270447e-04 7.320005213154e-04 7.319993147517e-04 7.319996536658e-04 7.319993224107e-04 7.319991614111e-04 7.319998543187e-04 7.320000789440e-04 7.320000232070e-04 7.319998022549e-04 7.319999845520e-04 7.319998637886e-04 7.319996444665e-04 7.319996388329e-04 7.319996064140e-04 7.319996299598e-04 7.319996042781e-04 7.319996337481e-04 7.319994281910e-04 7.319994181812e-04 7.319993648409e-04 7.319994383582e-04 7.319994309229e-04 7.319994164002e-04 7.319994613472e-04 7.319994075756e-04 7.320000064829e-04 7.320000765057e-04 7.319999786068e-04 7.319998677118e-04 7.319998924859e-04 7.319996354595e-04 7.319996285580e-04 7.319996541416e-04 7.319996107702e-04 7.319995996423e-04 7.319993811827e-04 7.319994071623e-04 7.319993903176e-04 7.319993597586e-04 7.319993327404e-04 7.319990530356e-04 7.319994112345e-04 7.319994812059e-04 7.319996245977e-04 7.319996676409e-04 7.319995531485e-04 7.319995526320e-04 7.319995276861e-04 7.319995477503e-04 7.319998426188e-04 7.319997883773e-04 7.319998284873e-04 7.319998468220e-04 7.319994195205e-04 7.319994523044e-04 7.320003879256e-04 7.320002086811e-04 7.320003143075e-04 7.320002448038e-04 7.320003110933e-04 7.319997059879e-04 7.320000990407e-04 7.320000075679e-04 7.319994736051e-04 7.320002500661e-04 7.319990750578e-04 7.319990991639e-04 7.319990382992e-04 7.319991943297e-04 7.319992447714e-04 7.319991156307e-04 7.319994954170e-04 7.319995780301e-04 7.319994304325e-04 7.319992418150e-04 7.319992536673e-04 7.319992385324e-04 7.320000794474e-04 7.319996730591e-04 7.319996287079e-04 7.319996941742e-04 7.319997015784e-04 7.319996438805e-04 7.320009343256e-04 7.319994267399e-04 7.319993913512e-04 7.319994469903e-04 7.319994246807e-04 7.319998083677e-04 7.319998235512e-04 7.319999241564e-04 7.319998407209e-04 7.319997121493e-04 7.319998091326e-04 7.319997913892e-04 7.319998239360e-04 7.319995042505e-04 7.319995245349e-04 7.320003785481e-04 7.319999202655e-04 7.319997402824e-04 7.319998428483e-04 7.319998333517e-04 7.319996529819e-04 7.319996503667e-04 7.319996024517e-04 7.319997396334e-04 7.319995404794e-04 7.319995447353e-04 7.319995285805e-04 7.319996942102e-04 7.320008015541e-04 7.320005991612e-04 7.320004617054e-04 7.319998906257e-04 7.319999404524e-04 7.319992413111e-04 7.319992790584e-04 7.319993423696e-04 7.319993229734e-04 7.319998872619e-04 7.319995732402e-04 7.319995461185e-04 7.319995801798e-04 7.319995828598e-04 7.320003216583e-04 7.319999625630e-04 7.319995748231e-04 7.319994607422e-04 7.319993749849e-04 7.319990948892e-04 7.319991282745e-04 7.319991044021e-04 7.319994134802e-04 7.319994807513e-04 7.319996069662e-04 7.319996240339e-04 7.319996179449e-04 7.319996003954e-04 7.319996767494e-04 7.319997198759e-04 7.319996450505e-04 7.319993906689e-04 7.319994036539e-04 7.319997975673e-04 7.319995056982e-04 7.319994489373e-04 7.319997231253e-04 7.319997427029e-04 7.319995318712e-04 7.319995943535e-04 7.319995327202e-04 7.319993496344e-04 7.319992967919e-04 7.319993366189e-04 7.319993816835e-04 7.319993350088e-04 7.319993923638e-04 7.319996344474e-04 7.319996821741e-04 7.319996514949e-04 7.319996486636e-04 7.319993019270e-04 7.319992758251e-04 7.319994107441e-04 7.319993757051e-04 7.319995818919e-04 7.319995672549e-04 7.319996239000e-04 7.319996948351e-04 7.319994290193e-04 7.319997383628e-04 7.319992771551e-04 7.319992082509e-04 7.319993115225e-04 7.319992189655e-04 7.319997418999e-04 7.319993178437e-04 7.319993518533e-04 7.319993463842e-04 7.319993668507e-04 7.319994022481e-04 7.320005498164e-04 7.320006874831e-04 7.319995717023e-04 7.319995445708e-04 7.319995610319e-04 7.319995986914e-04 7.319995854213e-04 7.319994366961e-04 7.319995004046e-04 7.320006651352e-04 7.319994988398e-04 7.319994835077e-04 7.320009246133e-04 7.320001992593e-04 7.319992125825e-04 7.319994818809e-04 7.319995178788e-04 7.319994536614e-04 7.319994867225e-04 7.320001864974e-04 7.319999232415e-04 7.319998027557e-04 7.320001337814e-04 7.319993031834e-04 7.319993053730e-04 7.319992696487e-04 7.319991620645e-04 7.319992165033e-04 7.319992391576e-04 7.319994025779e-04 7.320010425207e-04 7.319994268747e-04 7.319996838168e-04 7.319994383329e-04 7.319995136890e-04 7.319995647715e-04 7.319995831742e-04 7.319995753891e-04 7.319994066951e-04 7.319996634672e-04 7.319996335721e-04 7.319997330239e-04 7.319997662213e-04 7.319994463562e-04 7.320004915125e-04 7.320006796332e-04 7.320005761594e-04 7.319998849633e-04 7.320001013324e-04 7.320000285605e-04 7.319999878447e-04 7.319994750942e-04 7.319994500362e-04 7.319997063087e-04 7.320002207228e-04 7.319991614138e-04 7.319995852081e-04 7.319996173863e-04 7.319996600192e-04 7.319995330221e-04 7.319995317092e-04 7.319993741032e-04 7.319999783129e-04 7.319993003360e-04 7.319994195705e-04 7.319990982693e-04 7.319992208082e-04 7.319989879930e-04 7.319996804483e-04 7.319994843355e-04 7.319994841361e-04 7.319995183747e-04 7.319993560223e-04 7.319991613325e-04 7.319996358369e-04 7.319994826396e-04 7.319994014509e-04 7.319995379077e-04 7.319996748798e-04 7.319999300074e-04 7.319994047552e-04 7.319993676708e-04 7.319995562483e-04 7.319992982934e-04 7.319992816094e-04 7.319994937064e-04 7.319996636551e-04 7.319998788351e-04 7.319995350771e-04 7.319999788304e-04 7.319997872132e-04 7.319997516221e-04 7.319997329856e-04 7.319994171439e-04 7.319997291850e-04 7.319993853524e-04 7.319993486789e-04 7.319993215397e-04 7.319993198741e-04 7.319995876158e-04 7.319997086840e-04 7.319994679334e-04 7.319999106353e-04 7.319996858920e-04 7.319992138970e-04 7.319989863559e-04 7.319995825843e-04 7.319992138928e-04 7.320003205673e-04 7.319994062622e-04 7.319994444421e-04 7.319996813848e-04 7.319995857275e-04 7.320001381863e-04 7.319998646735e-04 7.319999131103e-04 7.319993605233e-04 7.319997541423e-04 7.319994518301e-04 7.319990992942e-04 7.319992910836e-04 7.320002462144e-04 7.319999629850e-04 7.319996772975e-04 7.319993033561e-04 7.319992987075e-04 7.319993530674e-04 7.319993261866e-04 7.320003847833e-04 7.319997581846e-04 7.319994077145e-04 7.319997006346e-04 7.319990583992e-04 7.319994406649e-04 7.319996183552e-04 7.319993826961e-04 7.319999251367e-04 7.319991462591e-04 7.320000817703e-04 7.320009810192e-04 7.319997621311e-04 7.319996198213e-04 7.319996426361e-04 7.319995867648e-04 7.319995015297e-04 7.319997618024e-04 7.320000598497e-04 7.319993313827e-04 7.319993214478e-04 7.320000404499e-04 7.319993326430e-04 7.319999475202e-04 7.319998443647e-04 7.319995061986e-04 7.320003167851e-04 7.319994248943e-04 7.319996154366e-04 7.320000827820e-04 7.319994017069e-04 7.320011037369e-04 7.319993631224e-04 7.319996221887e-04 7.319998954026e-04 7.319992645279e-04 7.319991486858e-04 7.319998118878e-04 7.319999074503e-04 7.320004341345e-04 7.319996774241e-04 7.320001324494e-04 7.319998144303e-04 7.320001002532e-04 7.319998393015e-04 7.320000129744e-04 7.319994467637e-04 7.319997553622e-04 7.319995480908e-04 7.320003468977e-04 7.319999966455e-04 7.320001349800e-04 7.319996376522e-04 7.319999273038e-04 7.319998771674e-04 7.320004520456e-04 7.320001563759e-04 7.319997016811e-04 7.319997083697e-04 7.320002534137e-04 7.320001103405e-04 7.319994637083e-04 7.319999922560e-04 7.320000270773e-04 7.319995764267e-04 7.320004691732e-04 7.319995788605e-04 7.319999606433e-04 7.319999577526e-04 7.319996960572e-04 7.319996974064e-04 7.319997243853e-04 7.319995697957e-04 7.320000146727e-04 7.319994486663e-04 7.320003108544e-04 7.319994334103e-04 7.319997366206e-04 7.320004572813e-04 7.319994728441e-04 7.319997569097e-04 7.320003565597e-04 7.319999789114e-04 7.319994957598e-04 7.319997191839e-04 7.320008543749e-04 7.319997909936e-04 7.319999022201e-04 7.319998052039e-04 7.320005613459e-04 7.320003181697e-04 7.319999218871e-04 7.319996281353e-04 7.319998378613e-04 7.320001874376e-04 7.319998667543e-04 7.319999101999e-04 7.320002238389e-04 7.320000752352e-04 7.319999806656e-04 7.319999452664e-04 7.320001187135e-04 7.319994800617e-04 7.320000097770e-04 7.320001329114e-04 7.319995866186e-04 7.320002228763e-04 7.319993803054e-04 7.319996604866e-04 7.319995174593e-04 7.320002234985e-04 7.319997619560e-04 7.319999423769e-04 7.319997828884e-04 7.319995955918e-04 7.319998805011e-04 7.319995263929e-04 7.319998939496e-04 7.319996432936e-04 7.319994353263e-04 7.320001209991e-04 7.319998867255e-04 7.319992394785e-04 7.320001830561e-04 7.320000137965e-04 7.320006165462e-04 7.319997163535e-04 7.319995600709e-04 7.319999654694e-04 7.320006783998e-04 7.319991663606e-04 7.320001791825e-04 7.319996720683e-04 7.320001274452e-04 7.320003031648e-04 7.319992022460e-04 7.319994563413e-04 7.320002492726e-04 7.319994671621e-04 7.320002748013e-04 7.320007716872e-04 7.319996091308e-04 7.319997010966e-04 7.319998992249e-04 7.319998204511e-04 7.319998576368e-04 7.319997396975e-04 7.319997984979e-04 7.319999612522e-04 7.319998997500e-04 7.320000989434e-04 7.319999336837e-04 7.320002002268e-04 7.320001118564e-04 7.319998542877e-04 7.319998326753e-04 7.320000634612e-04 7.319996624155e-04 7.319999423687e-04 7.319999761326e-04 7.319999945646e-04 7.319999318692e-04 7.319996168176e-04 7.320000214400e-04 7.320005574522e-04 7.319999433716e-04 7.320002769520e-04 7.320002461184e-04 7.320003625279e-04 7.320004226741e-04 7.319999689074e-04 7.319994008457e-04 7.320001678707e-04 7.319997597742e-04 7.320001711518e-04 7.319997251999e-04 7.320000699286e-04 7.320000348009e-04 7.319996147959e-04 7.320000429033e-04 7.319997168976e-04 7.320008405829e-04 7.319999243087e-04 7.320001134680e-04 7.319999900223e-04 7.320001632889e-04 7.320002027022e-04 7.319999655712e-04 7.319996128528e-04 7.319997999081e-04 7.320003595367e-04 7.319997185672e-04 7.319996373769e-04 7.320007176824e-04 7.319997290596e-04 7.319997109372e-04 7.319995295139e-04 7.319996028722e-04 7.320001151956e-04 7.319996474704e-04 7.319999337927e-04 7.320001266720e-04 7.320000496604e-04 7.320001311772e-04 7.320003172969e-04 7.319994422359e-04 7.320004723369e-04 7.319998209707e-04 7.320000268822e-04 7.320002299993e-04 7.319995530213e-04 7.319996360609e-04 7.320006387316e-04 7.319995782475e-04 7.319996321057e-04 7.319999087878e-04 7.319999384398e-04 7.319996752019e-04 7.319994286659e-04 7.319994992733e-04 7.319998351300e-04 7.319993648161e-04 7.320002547817e-04 7.320001273230e-04 7.319999581622e-04 7.319998004352e-04 7.320000231670e-04 7.319998138947e-04 7.320005272552e-04 7.320002866909e-04 7.320005861671e-04 7.319998128075e-04 7.319997657523e-04 7.319999476488e-04 7.320003234767e-04 7.320001385985e-04 7.319995684414e-04 7.320001491945e-04 7.319997002767e-04 7.319996407839e-04 7.320000935742e-04 7.319993278922e-04 7.319994504369e-04 7.319998290429e-04 7.319996154443e-04 7.320002410086e-04 7.319991179508e-04 7.319994970313e-04 7.319994293484e-04 7.320001795024e-04 7.320001514754e-04 7.319994836431e-04 7.319998279534e-04 7.319998127937e-04 7.319996430897e-04 7.320001094413e-04 7.320002507867e-04 7.319993155560e-04 7.320001262641e-04 7.319996891680e-04 7.320000430185e-04 7.319999738775e-04 7.320003600116e-04 7.319996544987e-04 7.320008925847e-04 7.319998481178e-04 7.319996142122e-04 7.319997530576e-04 7.319999532907e-04 7.320001821373e-04 7.320002865058e-04 7.319994727932e-04 7.320001813260e-04 7.319994018546e-04 7.319994681714e-04 7.319999857550e-04 7.320000574854e-04 7.320003821339e-04 7.320001556033e-04 7.320002172857e-04 7.319994879203e-04 7.319993450884e-04 7.319996208371e-04 7.319997525345e-04 7.320002434474e-04 7.320000123854e-04 7.320005866005e-04 7.319994261949e-04 
        </DataArray>
        <DataArray type="Float64" Name="STRAIN_XY" format="ascii">
          6.051915043864e-11 1.821512076372e-11 1.804633135803e-10 2.915328354099e-11 -1.200562589519e-11 -7.739134339890e-11 4.048517192479e-10 4.751300154338e-10 3.704275288851e-10 5.713085212015e-10 5.145320107480e-10 5.708909268180e-10 6.572634444659e-10 5.919933611125e-10 6.925831079446e-10 5.071945835494e-10 6.957688454909e-10 6.637238257193e-10 7.535886256632e-10 4.189947115301e-10 4.453991278478e-10 8.204857168798e-11 9.021905509991e-11 2.143608978633e-10 -6.194223975227e-12 -4.002661167284e-12 5.412358932086e-10 3.602890603184e-10 5.865342149376e-10 4.484679681893e-10 2.674527181200e-10 9.760822272874e-11 7.747841341143e-10 6.762481988811e-10 6.258252996037e-10 5.853856275210e-11 1.468711867349e-10 -3.986401816806e-11 6.844592092976e-10 6.897502609477e-10 4.731832734432e-10 9.321388771939e-11 1.169149911523e-10 5.505696438683e-10 5.270371240271e-10 3.601431730149e-11 1.652645422471e-10 7.910334297109e-10 7.577440474653e-10 7.473692044973e-10 7.445559651170e-10 6.283166616895e-10 7.298379729491e-10 7.308170340449e-10 4.288149330944e-10 2.544798440729e-10 2.321511056882e-10 6.060552358877e-10 5.953808278062e-10 7.596403787397e-10 4.660738656308e-10 3.160354287718e-10 6.256827451469e-11 2.407544055097e-10 5.483151820316e-11 -3.024504360319e-13 -6.832487169897e-11 6.417275401501e-10 5.401007433447e-10 6.741762814951e-10 6.552370044475e-10 7.572871631852e-10 6.851142666605e-10 5.813412722221e-10 8.108161664249e-10 7.495173588611e-10 2.265003529438e-10 8.168388871115e-12 2.587298977946e-10 5.286833607436e-11 7.277106340841e-10 6.277786591711e-10 7.297865108603e-10 2.974484337481e-10 2.792705200350e-10 7.579452646617e-10 5.280893064895e-10 5.396696128664e-10 7.763020230804e-10 7.473600500331e-10 1.072628604268e-10 1.734259480487e-10 6.636900985712e-10 5.964180224229e-10 5.100683607400e-11 1.337244215525e-10 5.819158556893e-10 6.704124074221e-10 4.776749556099e-10 3.624345571837e-10 6.006429904255e-10 3.089395241339e-10 1.929950567823e-10 4.635274068863e-10 6.843810607103e-10 5.321182367021e-10 7.305429158872e-10 7.352940015034e-10 6.287064603576e-10 3.826809581387e-11 3.730352817731e-11 1.756091896822e-10 4.498394571336e-11 -2.679458608115e-11 -3.835135494769e-11 2.024133469247e-10 2.648606099103e-10 1.823562789631e-10 5.015447181102e-10 5.552324624616e-10 5.135445628757e-10 6.111037857895e-10 4.835195193932e-10 5.249727253061e-10 4.483421101401e-10 7.022557746203e-10 6.114071702627e-10 6.931018115959e-10 3.965718191118e-10 3.661619066260e-10 1.045097183526e-10 9.736648498952e-11 1.692535166328e-10 -2.977203818763e-11 -7.121254396355e-12 4.589574545012e-10 3.434241339521e-10 5.028305711787e-10 3.520072066225e-10 2.090941374182e-10 7.163838924471e-11 6.462903275726e-10 6.164089654502e-10 5.583430659353e-10 6.821204331627e-11 7.116323329226e-11 -7.521207872996e-11 6.069768320652e-10 5.716939932811e-10 5.519784799091e-10 1.325901919397e-10 8.871461339840e-11 5.584343256117e-10 3.497136728545e-10 -1.266334437213e-11 3.543598207418e-11 6.626543398475e-10 5.846203064035e-10 6.084252179908e-10 5.612546173583e-10 5.830162438934e-10 6.075711915034e-10 6.554443513599e-10 3.375323629496e-10 7.162337509880e-11 8.388788504130e-11 4.210928783922e-10 3.671953510432e-10 5.120147851798e-10 3.168617186786e-10 1.477575101140e-10 7.451820921759e-11 1.759714494025e-10 9.815820817954e-11 6.215498373930e-11 -4.718168802363e-11 4.159716763894e-10 3.521720728262e-10 6.603981509067e-10 6.915148207309e-10 7.533104101853e-10 6.116165403997e-10 6.182174631612e-10 6.913202467118e-10 5.942771929497e-10 1.071697203050e-10 -5.449750682422e-11 2.028943475417e-10 8.796826327314e-11 4.394780586684e-10 4.316050634945e-10 6.404420944982e-10 2.004897270988e-10 1.127902870137e-10 5.169400203615e-10 3.939342294859e-10 5.868322838801e-10 7.163594471169e-10 6.565650179320e-10 5.087505130535e-11 1.675521737624e-10 6.283687188274e-10 6.331971815411e-10 1.240220934848e-10 7.945000569647e-11 5.683657476656e-10 6.085389197580e-10 2.952940881455e-10 1.906263131377e-10 4.282708278127e-10 2.960575715488e-10 1.678957437227e-10 4.913397684168e-10 6.494478791106e-10 4.252270969779e-10 6.452714811072e-10 6.437296517194e-10 4.738740486815e-10 9.814540527084e-11 4.857784384958e-11 7.378649333641e-10 7.320613380988e-10 1.039633636090e-11 2.642493801911e-11 -2.225528653058e-11 1.026999014523e-10 4.324224056945e-11 8.929652857715e-11 2.428103783867e-10 1.097579425015e-09 1.071934357911e-09 3.346386232076e-10 1.070171289354e-09 1.097327779495e-09 3.662679602223e-10 1.082972327566e-09 1.087474880265e-09 4.144877293872e-10 1.086169547794e-09 1.111299498254e-09 1.154107110298e-10 8.084257440181e-11 1.059435248676e-10 1.175039372963e-10 1.271230187902e-10 6.022950925976e-11 -1.298485015486e-10 -9.476733337591e-11 -1.763731880632e-11 -1.018004870106e-11 -8.859410663086e-12 -6.660865620822e-12 4.045639512379e-10 1.102808892347e-09 1.130213480809e-09 4.669201236857e-10 1.126237739957e-09 1.097407147467e-09 1.000956656151e-10 5.973457589663e-11 1.379564895390e-11 1.138568504683e-10 7.099160714445e-11 7.651534834694e-11 4.493166124714e-10 1.126390977982e-09 1.081274165861e-09 4.578281768498e-10 1.089918581572e-09 1.155027722618e-09 6.605912553624e-11 5.087143054895e-11 4.452278507623e-11 3.241593542288e-10 1.036120226985e-09 1.089379733406e-09 7.008890935146e-12 -5.459465860077e-12 4.158988120128e-10 1.106266970905e-09 1.093020147247e-09 -9.773071680079e-11 -8.155860133031e-11 -8.315462407089e-11 5.467813358629e-11 1.642231922500e-11 6.874756069618e-11 1.732396952564e-10 1.829461724409e-10 4.788985915975e-10 1.087950071387e-09 1.143365532540e-09 4.166986281672e-11 9.216004206103e-12 1.014685127506e-10 -1.474735636926e-10 -1.443960480857e-10 -7.970713117729e-11 -5.268773439004e-11 5.433479126377e-10 1.116900818877e-09 1.148065200588e-09 1.230634503530e-10 1.501202095541e-10 1.742933733637e-10 1.383363674184e-10 1.871557686630e-10 2.132095849658e-10 2.223304719456e-10 1.810071363515e-10 8.595282959319e-11 4.654073478059e-11 9.898169730274e-11 1.610096528489e-10 2.421405831753e-10 2.831799537018e-10 2.988504346826e-10 2.582428381576e-10 1.958673708243e-10 1.350677195776e-10 1.034977740102e-10 2.757500768165e-10 1.095173117537e-09 8.326302668711e-10 4.309303693563e-10 1.117603660476e-09 1.056506493581e-09 4.896923193631e-12 2.321223015233e-11 3.703616424383e-11 1.407843968247e-10 1.660719551306e-10 2.734671109927e-10 1.936216483167e-10 -2.240176413692e-10 -1.083444110287e-10 -7.822080545675e-11 -1.618812468337e-10 -2.376150437729e-10 8.126113445221e-11 1.121391573982e-10 -1.418457555901e-10 -1.360718811255e-10 -1.114095741445e-10 -1.561163822096e-10 3.969759337860e-10 1.077311954591e-09 1.363502100157e-10 8.955903786590e-11 5.288356960253e-10 1.094015052798e-09 4.072771108794e-10 1.077025258587e-09 1.124514356228e-09 1.523706862941e-10 3.164828521503e-10 -2.319429293437e-10 -1.917714465625e-10 3.538110594675e-11 1.594189209452e-10 2.423142382231e-11 5.123947331867e-11 2.112742546417e-10 1.946628231316e-11 6.922201432279e-11 9.061511351768e-11 3.167131989391e-11 1.571948113217e-10 1.992062246134e-11 8.187653811326e-11 1.690617662327e-10 1.146322720286e-10 1.239207382070e-10 1.170670075800e-10 1.774734338321e-10 1.845341427433e-10 2.032811892396e-10 1.435843480517e-10 1.390340330638e-10 1.847992416651e-10 1.774396169826e-10 1.747501227290e-10 1.544740163342e-10 1.739192365182e-10 2.125719821543e-10 6.065280198794e-12 4.665208723323e-11 3.321300648143e-11 3.208218052410e-11 1.664665790873e-10 2.657171179575e-10 1.662678365076e-10 -5.319387906500e-11 4.686436180362e-10 1.104976794575e-09 1.153043683060e-10 2.059669234451e-10 1.579608110415e-10 2.573177385490e-10 1.335109260941e-10 2.283616491417e-10 2.609363155426e-10 2.558495541214e-10 2.082825483236e-10 1.676311510421e-10 4.145104814456e-10 2.526104026655e-10 2.583811738567e-10 2.451917577598e-10 2.125571564987e-10 2.169708117545e-10 2.343879055126e-10 2.043988940469e-10 2.355018630103e-12 5.900156547867e-12 -1.475180671379e-11 -3.799764404951e-12 1.373436177608e-10 1.558852826632e-10 1.495384050051e-10 -5.424392565259e-11 -2.682745224135e-11 -2.926505762014e-11 9.331858286116e-11 8.125574728856e-11 -3.377099886061e-12 2.125061966990e-11 2.763462692742e-10 2.455167146891e-10 2.394990407781e-10 1.913979608431e-10 5.938701904733e-12 8.238001451292e-11 1.478678762307e-11 2.189619295551e-12 1.377770827099e-10 2.111304348094e-10 1.241058356236e-10 1.221042888106e-10 3.126956936511e-10 2.577559691446e-10 3.026950558075e-10 3.367102880997e-10 2.444490319845e-10 1.188491106080e-10 1.039170635822e-10 1.361771274722e-10 7.363698069418e-11 1.918321061959e-10 1.028831904504e-10 1.728987800461e-10 -2.032481512059e-11 -7.627125606619e-11 1.735805947968e-10 2.460275627837e-10 1.848132666802e-10 2.876948452897e-10 3.178163754395e-10 2.588967988646e-10 3.066828024838e-10 1.935874213674e-10 2.193775767749e-10 3.494846960475e-10 3.117229552691e-10 2.962915215553e-10 9.425918416201e-11 9.785693094473e-11 1.325534789814e-10 1.237770239765e-10 4.152566217517e-10 1.090667223161e-09 5.431081289405e-11 5.847212613005e-11 3.880952062668e-10 1.095510419903e-09 1.836665307489e-10 2.052069936607e-10 2.072886951436e-10 5.117488524847e-10 1.099868199177e-09 1.084660999362e-09 3.708286995375e-11 4.189237987539e-11 5.782892657935e-11 1.013432906721e-10 7.637185762994e-11 6.685221076083e-11 2.218282970434e-10 1.831669775652e-10 1.433933034701e-10 1.462428750870e-10 1.340120617649e-10 1.116679689549e-10 9.486079885830e-11 1.761249812278e-10 1.228799911126e-10 1.645241246990e-10 1.671441856667e-10 1.445890260909e-10 1.164975995287e-10 4.824367950748e-11 2.031782567757e-10 2.289279458749e-10 5.189406984782e-11 -4.009038215302e-12 -2.105518367892e-11 1.528319811704e-10 8.971594156239e-11 1.048267528448e-11 -6.914123965082e-11 4.723554392616e-10 1.105557487490e-09 -1.202000003414e-10 -9.369295059776e-11 -6.976450138614e-11 -6.711863191540e-11 1.885196552521e-10 1.523211656964e-10 1.969138708424e-10 2.190911156308e-10 1.934376044575e-10 1.063181790930e-10 2.634367121675e-10 2.501110798723e-10 2.581155446315e-10 2.904452969003e-10 3.414191152418e-10 2.303043226567e-10 -5.460721135659e-11 -1.558753786457e-10 -8.747702064307e-11 2.099152827778e-10 1.291499686857e-10 8.562518639587e-11 1.636037229612e-10 2.411653232077e-11 1.780895034666e-10 8.763492313054e-11 9.624456450381e-11 4.592966385735e-10 1.076380781578e-09 3.928778550509e-11 5.780885868139e-10 1.094472849523e-09 5.730408585589e-10 1.128473755141e-09 7.428455978778e-11 5.145033349558e-11 1.263434471247e-11 3.911721964863e-11 2.044054526537e-10 1.678100626088e-10 1.993077228695e-10 1.574316260204e-11 3.307858707676e-11 -2.371426479994e-11 -2.127126090285e-11 1.138300754623e-10 1.524024981893e-10 4.308391852774e-10 1.072387140799e-09 2.019018146381e-10 2.279877960602e-10 2.072883182718e-10 1.988933574134e-10 2.142233184883e-10 2.031844389525e-10 2.354049393585e-10 -8.056016515836e-11 -6.309558662580e-11 -6.681025106158e-11 1.736164092786e-10 2.310368226834e-10 1.819677440759e-10 2.518720944593e-10 1.866989801246e-10 2.731489855642e-10 -1.367284879097e-10 1.313917363001e-10 4.134458775503e-11 8.704651573447e-11 5.001426137752e-12 -1.098939105074e-10 -2.671847947515e-11 2.295647900243e-10 1.842198308075e-10 3.402403703385e-10 2.968142377869e-10 -2.471204806517e-11 -4.245176102826e-11 -3.359995934640e-11 -1.141845551397e-11 4.889426555157e-10 2.769916671966e-10 -5.909497430397e-11 -2.351214324238e-11 -2.049190869991e-11 2.504600139206e-10 1.580185427305e-10 1.906148577783e-10 1.912341272587e-10 5.961608468071e-10 4.509828401654e-11 1.078300343483e-12 2.428687581801e-11 3.899596622229e-11 7.379128037777e-11 2.587533396239e-11 4.249064305460e-10 3.337814627329e-10 1.093155055032e-09 6.078651810921e-10 1.285142476955e-10 2.988807189041e-10 2.091718303511e-10 4.516364432636e-10 1.563834213750e-10 1.307791704811e-10 1.457522838894e-10 4.324385500057e-10 3.605110254459e-10 2.794540166422e-10 1.748840183147e-10 2.109022515022e-10 1.255283260069e-10 4.240062789166e-10 1.057613023688e-09 1.892071071198e-10 1.309438473595e-10 4.844150919590e-10 1.058346218418e-09 9.804586797168e-11 8.101750176408e-11 -1.736354057268e-11 -5.613906255554e-11 2.398257255866e-10 2.573006960686e-10 4.566273317079e-10 1.008897341424e-10 7.964620174547e-11 1.843169475230e-10 1.935754965449e-10 2.462092136862e-10 2.946149341382e-10 2.148496122324e-10 1.649295750609e-10 2.529329523443e-10 3.816072909123e-10 9.257832958462e-11 -1.202271527288e-10 -1.978073602629e-11 4.663123864116e-10 1.158611312628e-09 1.134164707304e-10 9.922948347459e-11 5.874960471025e-10 1.191995958816e-09 -1.659411119831e-10 -1.156533925974e-10 2.112939338436e-10 2.195213543321e-10 4.288628398113e-10 1.956524354467e-10 2.316845266670e-10 2.677847403860e-10 1.287104950418e-10 1.366650004926e-10 -1.267705180530e-10 -1.318550082902e-10 1.488912279217e-10 2.913082237854e-10 1.898032964509e-10 2.833278941512e-10 1.366924645486e-10 2.163865393668e-10 1.431289936126e-10 2.026865473109e-10 2.122869516635e-10 2.562780708853e-10 1.793613890850e-10 1.445033789384e-10 1.837058545757e-10 1.395585678258e-10 5.326259238943e-10 6.088961714329e-10 1.499002846277e-10 5.597238110429e-10 7.615930490581e-11 -5.526784547336e-12 -4.425525933826e-11 -3.322329224644e-11 -3.515440635378e-11 7.802924766307e-12 1.542692010920e-10 -1.797845901121e-10 6.167343101058e-10 -1.078158423289e-10 3.239652625084e-10 -5.402613733989e-11 5.132191675426e-11 -1.897126696053e-11 -2.834760563493e-11 -1.399908558270e-10 -1.176087986956e-10 4.276212049377e-11 -6.156028503716e-11 2.101834073179e-11 1.648281868795e-10 1.985515106877e-10 5.417650740227e-11 1.585423385485e-10 1.241466380401e-10 9.725186218987e-11 5.419479396253e-10 1.097809541971e-09 2.431472340417e-10 2.287712237315e-10 2.511887901239e-10 -1.297341855221e-11 1.286058330097e-11 -3.122480328769e-11 -2.169203670867e-10 -2.325760222301e-10 1.912674700753e-10 1.480003638180e-10 1.368577283609e-13 1.734054243564e-10 3.093320881280e-10 -1.090675518549e-10 1.471093688940e-10 2.509001475006e-10 3.034607293601e-10 1.291298235377e-10 2.933016430739e-10 3.075793709839e-10 4.518874015937e-11 8.571663541469e-11 1.609964548628e-10 -1.245986560943e-10 2.171079336095e-11 5.860076922955e-11 -5.392036119765e-11 1.579755696729e-10 5.253576704923e-10 1.071146364821e-09 -1.289837006462e-11 2.273177533116e-11 7.465523707041e-11 6.387303414496e-11 4.563343862198e-10 1.808456250652e-10 -1.027442737371e-11 1.679834366299e-10 1.976576831588e-10 7.604064224954e-11 -3.947368335004e-11 9.728461864779e-11 3.066610432386e-10 -1.964961732822e-12 3.091281788924e-11 -7.987088327388e-11 -1.050819455756e-10 1.794319257870e-10 1.617639828765e-10 1.112919210065e-10 1.886641708711e-11 9.163679187850e-11 2.415750417882e-10 1.321868359078e-10 2.510630812089e-10 6.106653552873e-11 1.955215615886e-10 1.609377659042e-10 -6.847069862499e-11 1.001480500598e-10 3.067854791549e-10 2.358952741876e-10 8.055121844493e-11 2.531756297317e-10 1.956204482661e-10 2.771764022210e-10 2.376414305192e-10 1.576552309724e-10 1.778701991245e-10 -3.770260468302e-11 1.277563454098e-10 2.219196975624e-10 4.226074964194e-10 8.415586732435e-11 2.208496529679e-10 2.478529700114e-10 1.657389647105e-10 1.148476313411e-10 8.976236228195e-11 1.709353313861e-10 4.318593531134e-10 5.404409690900e-11 1.001574169934e-10 1.934559581175e-10 1.790947388727e-10 2.378512124694e-10 4.977788063150e-10 -1.284673945371e-10 -2.255159505002e-11 -2.459319045491e-12 -1.394948829600e-12 1.042391424070e-10 4.612711287755e-10 2.169035271380e-10 1.549717276308e-10 2.096565362716e-10 -9.064368237079e-11 -6.205794440581e-11 9.832017334845e-11 1.687391488960e-10 9.356848170066e-11 4.706640594843e-12 1.673160920763e-10 2.276278214856e-10 -1.127581767950e-10 -2.896975019137e-10 1.861502794502e-10 1.431841114937e-10 6.184294827164e-10 2.275919253333e-10 -1.605285947519e-10 3.138052528172e-10 2.142163590700e-10 1.323335882227e-10 4.303965786093e-10 3.355900324251e-10 1.882137146471e-10 3.335337084269e-10 3.202772206336e-10 2.703656883410e-10 3.417725345114e-10 2.998952476446e-10 3.031970127700e-10 3.737249863542e-10 3.644075467601e-10 2.138744319910e-10 3.595168984237e-10 3.406543795360e-10 2.365849847603e-10 3.460323984521e-10 3.438259877539e-10 2.561573293207e-10 3.895892094376e-10 3.305019825465e-10 1.980741915912e-10 3.539263351252e-10 3.504373842518e-10 1.650783741293e-10 3.156775408807e-10 3.125264176916e-10 2.001571992550e-10 3.189962091767e-10 3.533812886050e-10 2.013658656265e-10 3.308386596574e-10 3.677491210022e-10 9.875008032518e-11 2.420778765116e-10 2.233282762942e-10 -7.905116469031e-11 -1.915499546314e-11 3.707709539661e-11 2.920512689759e-10 4.880249116359e-10 4.342976184743e-10 1.241122963252e-10 2.483176265658e-10 2.337499389244e-10 1.881602114424e-11 1.036324904901e-10 1.368203818326e-10 2.932776466342e-12 8.476472137670e-11 5.747613644203e-11 1.515193109876e-10 2.729361172970e-10 2.935333050188e-10 1.919582751171e-10 3.710157796169e-10 3.546401824152e-10 1.539451514019e-10 3.350695680328e-10 3.280597521882e-10 6.327260776200e-11 1.573446077899e-10 1.373480121014e-10 -1.051516739485e-10 3.219180093453e-11 5.445600842364e-11 8.107421303007e-11 1.787664732544e-10 1.879627894212e-10 2.512902440977e-10 3.478339159219e-10 1.743627445168e-10 2.831525592744e-10 1.145351023018e-10 2.878042746351e-10 2.157714955903e-10 3.758502097032e-10 1.201412922462e-10 2.437711112131e-10 2.411842450122e-10 3.447223554524e-10 2.104604338268e-10 2.052381977278e-10 2.835138610284e-10 1.910512950852e-10 1.272689826383e-10 2.283954319209e-10 1.759452969423e-10 -4.337411989977e-11 2.158571931297e-10 -3.215040199294e-11 -1.318644416517e-10 -2.765227198625e-11 4.171339911759e-11 2.657476874010e-10 1.159287360372e-10 1.692831207695e-10 2.427699528946e-10 1.904051124381e-10 1.424884884351e-10 2.135906773200e-10 1.362786253760e-10 5.587612507905e-10 6.066457099033e-10 4.801024163711e-10 5.210030892835e-10 5.144830760238e-10 4.702476708516e-10 5.323323474328e-10 5.402885423940e-10 4.738801441772e-10 5.170924179656e-10 5.036726844518e-10 5.044354697516e-10 5.326757884971e-10 5.396601320964e-10 4.813489983754e-10 5.607431396004e-10 4.320101838563e-10 5.130162880092e-10 4.701827048062e-10 5.684092105009e-10 5.890313172047e-10 6.245704279283e-10 2.061111961443e-10 3.275198542979e-10 2.757065068134e-10 4.952948311226e-10 5.672779943836e-10 5.904535569472e-10 4.727861098893e-10 5.192065645791e-10 5.367602357663e-10 4.725492504080e-10 5.662127853501e-10 5.410855511294e-10 2.661500685346e-10 3.299320713643e-10 3.901052219710e-10 3.049661958855e-10 4.150021229052e-10 3.683801374498e-10 1.126661067085e-10 2.156360397476e-10 2.135236529707e-10 3.678381092694e-10 4.751401945863e-10 4.547288293049e-10 1.908188558842e-10 2.417635718154e-10 3.048856401358e-10 5.442283896624e-10 6.524168576585e-10 6.254556775149e-10 3.671591568977e-10 4.593679207962e-10 4.534071120399e-10 3.512588565837e-10 4.258000243032e-10 4.380668763182e-10 4.897722799047e-10 5.978863892118e-10 5.649883726496e-10 5.432039726188e-10 6.308505119928e-10 6.419424307513e-10 4.627008054544e-10 5.505079877559e-10 6.037588939684e-10 1.634878324706e-10 2.227387319762e-10 1.951714368083e-10 4.794959631805e-10 5.502260004454e-10 4.450202018245e-10 4.870881389684e-10 4.609463972580e-10 5.584758812369e-10 5.723149849309e-10 4.949335291986e-10 5.615755241669e-10 4.908661255821e-10 4.767384925361e-10 4.622936680185e-10 4.848010598609e-10 4.025408060064e-10 4.820604323102e-10 3.248676806414e-10 5.102500039739e-10 4.722132988089e-10 3.622186084120e-10 1.568319587725e-10 5.370089939179e-10 2.297136860913e-10 2.839357968668e-10 1.747710415035e-10 1.953096799114e-10 4.912853878258e-10 3.350288095211e-10 5.005100302945e-10 5.435854657634e-10 4.450100651447e-10 3.833700618246e-10 4.901110403661e-10 6.915031418825e-10 5.838834452779e-10 5.931643349524e-10 5.773616285224e-10 6.102150190988e-10 6.048060675687e-10 5.923360139151e-10 5.833353354709e-10 5.792206342711e-10 6.163653164248e-10 6.215520438888e-10 6.753641668638e-10 6.442018023454e-10 6.011083223698e-10 5.903699473550e-10 6.105995009558e-10 5.880833649551e-10 5.848309158141e-10 5.745240310363e-10 6.656204780929e-10 6.325136887837e-10 6.854723732713e-10 2.981193070033e-10 3.297903073586e-10 3.468315005425e-10 6.519385612250e-10 6.809717556780e-10 6.345106965903e-10 7.303864813530e-10 7.496217301409e-10 7.291667600814e-10 7.342914601405e-10 7.733462383893e-10 7.838660163218e-10 5.513833880278e-10 5.114664347861e-10 5.218939307680e-10 7.099793670273e-10 6.857506665017e-10 7.507036917102e-10 6.070919329616e-10 6.696666096018e-10 6.082234523310e-10 5.989565705051e-10 6.161908747523e-10 6.276531127066e-10 3.029951830569e-10 3.581444707015e-10 3.369973673279e-10 3.930663583766e-10 4.608099815297e-10 4.207446616859e-10 3.677970691281e-10 3.861085655541e-10 4.393137852287e-10 4.849216259855e-10 5.506088708587e-10 5.092235456584e-10 7.035226540735e-10 7.572855872766e-10 7.007572151645e-10 6.816436633166e-10 7.096296540808e-10 7.550003323299e-10 6.011763204130e-10 6.333030167168e-10 6.658925981193e-10 5.593145265513e-10 5.984164200617e-10 6.189080804295e-10 6.458967872206e-10 5.719516408971e-10 6.056364435498e-10 2.949805381982e-10 3.504027798034e-10 4.489363583031e-10 4.830702239409e-10 6.337389603076e-10 6.378571145370e-10 7.092273348334e-10 5.784381860351e-10 6.334960764274e-10 5.854248247317e-10 5.841955652260e-10 6.017411018767e-10 5.963666315986e-10 7.364554555454e-10 6.829968628026e-10 6.601015264452e-10 7.152797716069e-10 3.360281066403e-10 3.248949741722e-10 4.495652822564e-10 6.475736077351e-10 7.222679214317e-10 6.392592416335e-10 5.153374203562e-10 5.531720463343e-10 4.660406514820e-10 3.747152133486e-10 6.004295863537e-10 6.999243454397e-10 6.695634520564e-10 6.198806292938e-10 6.153542363452e-10 6.111450032096e-10 5.846222007837e-10 6.588266504180e-10 6.292728332349e-10 6.119914750750e-10 6.127338263901e-10 5.955930705169e-10 5.673077685201e-10 6.069802859162e-10 5.819128120205e-10 6.131587263045e-10 6.563166104421e-10 6.090160892342e-10 6.088622983815e-10 7.155592823069e-10 6.582742121158e-10 6.898989064130e-10 7.106578558702e-10 6.655790108811e-10 6.846563774643e-10 6.718800003093e-10 6.205402032077e-10 6.114315111548e-10 6.969723788306e-10 6.652247779703e-10 6.905550966505e-10 7.508098295554e-10 6.981140339267e-10 7.702659123041e-10 8.256315413541e-10 7.876475845788e-10 8.016459083523e-10 6.690665300346e-10 6.455784154852e-10 6.201495113106e-10 5.636011547236e-10 5.930549306881e-10 5.587115246571e-10 3.647994510342e-10 3.654542958792e-10 3.625526815126e-10 4.935325790668e-10 4.297451346422e-10 4.977738391470e-10 4.155656063857e-10 4.627865801821e-10 4.012160499757e-10 6.693733744734e-10 6.583568997906e-10 6.373300550019e-10 8.389451436341e-10 8.147905276595e-10 7.892329886265e-10 7.875616058738e-10 7.376046775453e-10 7.155701444781e-10 5.161926159065e-10 5.054269601707e-10 4.737733105453e-10 3.752131733118e-10 3.737629583907e-10 3.919462199595e-10 5.969997014797e-10 5.478576198082e-10 5.956913416254e-10 6.283781731474e-10 6.101064888328e-10 6.843614304426e-10 7.003506881148e-10 6.903829402553e-10 6.553696790037e-10 6.243518706596e-10 8.203483481597e-10 7.995652273276e-10 7.212359315464e-10 6.919609032333e-10 6.581654533172e-10 6.357753495922e-10 6.176936262128e-10 6.049413363226e-10 6.720146717665e-10 6.989219535269e-10 8.387194765850e-10 3.950645406318e-10 7.156263962921e-10 5.466070792119e-10 3.641594974425e-10 4.522177804628e-10 4.252415367515e-10 8.049768933838e-10 5.141807447067e-10 5.936471622328e-10 7.056890436832e-10 6.420777340257e-10 7.519804925926e-10 6.832191567470e-10 8.230934892236e-10 6.182147509482e-10 6.212416123296e-10 4.913006209580e-10 5.933125362160e-10 5.326053902923e-10 5.381262774191e-10 6.253825316582e-10 6.013516044624e-10 5.844888616143e-10 5.922547088322e-10 5.110554138984e-10 5.224445844521e-10 5.781821344510e-10 4.919664453138e-10 4.983669628176e-10 5.910101239659e-10 5.100927927010e-10 5.005331322786e-10 6.816167278977e-10 6.327694406439e-10 6.259615020060e-10 6.814587328268e-10 6.580640840281e-10 6.704485010696e-10 6.788932698796e-10 6.312686340502e-10 5.931769014622e-10 7.100736449317e-10 6.185747639056e-10 6.971072330813e-10 8.116450708746e-10 7.530719655679e-10 7.758575330856e-10 6.578615456794e-10 6.080455171181e-10 5.932586552368e-10 5.749964595297e-10 5.228655922694e-10 4.698940071681e-10 3.743310088938e-10 3.741489875894e-10 3.441273224467e-10 6.663857880932e-10 5.928829633065e-10 5.964098990607e-10 4.612053045606e-10 4.487500531097e-10 4.039512969592e-10 4.086648109023e-10 3.401010088039e-10 3.986027613592e-10 5.631281130015e-10 5.033024717510e-10 5.408316714304e-10 8.479134577083e-10 7.707170687646e-10 7.727383250331e-10 7.752342730088e-10 7.668536769365e-10 7.034455916280e-10 6.038331499039e-10 5.359079758856e-10 5.816428763678e-10 4.092100744922e-10 3.604992340524e-10 6.612921648557e-10 6.289945389217e-10 6.727757991258e-10 6.154355834933e-10 4.787942567353e-10 4.535849708105e-10 5.462702435468e-10 4.692641846100e-10 3.747136018605e-10 3.424217493257e-10 7.353197112663e-10 7.392978964506e-10 7.027118679699e-10 6.041944093024e-10 6.201124228947e-10 5.863102687273e-10 6.836927139430e-10 6.301003720042e-10 6.584434662077e-10 5.935916637735e-10 5.855261018561e-10 5.563094046680e-10 6.648222234110e-10 8.573074739385e-10 6.185258730886e-10 7.991520612006e-10 5.838499687604e-10 6.807913574176e-10 4.874069316283e-10 5.409093497072e-10 8.005581774165e-10 7.085865719195e-10 3.549876844180e-10 6.413649050374e-10 4.344258692073e-10 7.240965096824e-10 6.875333801522e-10 2.732827530027e-10 5.025548337775e-10 5.375708390711e-10 4.336631121433e-10 4.455076778520e-10 5.116055574126e-10 4.113674482373e-10 4.193989888791e-10 4.703698191659e-10 3.954261519490e-10 3.985107488437e-10 4.770915827476e-10 3.539331553633e-10 3.693492482346e-10 4.378057619911e-10 3.203074559042e-10 3.583284064855e-10 6.180358984521e-10 4.385534497560e-10 4.400255279609e-10 7.423128045776e-10 6.524303488668e-10 5.857132508314e-10 7.551424666645e-10 6.195532649435e-10 6.560919096534e-10 4.953017652536e-10 4.013578670743e-10 4.559946087502e-10 6.572928482089e-10 4.793970290806e-10 4.860814492938e-10 5.389464500580e-10 4.558129793687e-10 4.577130488091e-10 3.835941415696e-10 3.055412785053e-10 3.404877432819e-10 3.574026945828e-10 2.273858206548e-10 2.811422476870e-10 3.631550138098e-10 3.263518343310e-10 2.736415169210e-10 5.539145603151e-10 4.421663939713e-10 4.449648279683e-10 5.245118891210e-10 4.039337244101e-10 3.610736274107e-10 6.376937133592e-10 5.217941479287e-10 4.972216008247e-10 6.958773696232e-10 5.526416200974e-10 5.852503621763e-10 5.858228982209e-10 4.878303556014e-10 4.929624353429e-10 3.187086144433e-10 2.182206315695e-10 2.358858250662e-10 4.811847599473e-10 4.068398395590e-10 3.826547425119e-10 4.956916369656e-10 4.253914907075e-10 4.210277074462e-10 5.357673383878e-10 4.728442937019e-10 4.633351570954e-10 3.920513494469e-10 7.312118397877e-10 5.989278806287e-10 2.838474106051e-10 2.232744378787e-10 5.925057528758e-10 4.900538354968e-10 6.159514567246e-10 5.352672335162e-10 4.253996139496e-10 4.948579370624e-10 4.358579283263e-10 4.731357860973e-10 5.448403247873e-10 5.416788609491e-10 7.349011875030e-10 6.233825253401e-10 3.529252553240e-10 3.273941809566e-10 4.062737895987e-10 7.549867922473e-10 5.587893048067e-10 6.158659165666e-10 4.988745527790e-10 7.065638961526e-10 4.821724818220e-10 5.312072830696e-10 5.741742321849e-10 2.964233793997e-10 5.321690865738e-10 1.193532417109e-10 8.671471494870e-11 3.648030826108e-10 2.401017755806e-10 2.437261273216e-10 2.484161820962e-10 2.014423914394e-10 1.661675380098e-10 2.409958217664e-10 1.125012018864e-10 7.393863196174e-11 3.720705008529e-10 2.471458279548e-10 2.480438089023e-10 3.196455630052e-10 1.978988557518e-10 1.974314801814e-10 2.734122731210e-10 1.365603492224e-10 1.509831715519e-10 3.214246943358e-10 1.536268595096e-10 1.897503941353e-10 3.854112002598e-10 2.446141529621e-10 2.467443576300e-10 4.279157002036e-10 2.820066862909e-10 2.913326856270e-10 5.187191351072e-10 3.593409214851e-10 3.549159882038e-10 4.310552145893e-10 3.192807758517e-10 2.886142056924e-10 3.556570730125e-10 2.660558151286e-10 2.177477430178e-10 2.458951098023e-10 1.720031309392e-10 1.061439764488e-10 1.188018134999e-10 2.087071537247e-11 1.644795784015e-11 2.453890915968e-10 1.262546517698e-10 1.362651428928e-10 3.500154742526e-10 2.175194394022e-10 2.235772294325e-10 3.901047136546e-10 2.393889153586e-10 2.753117296539e-10 5.499488818373e-10 3.267718894139e-10 3.826264405042e-10 4.710438126287e-10 3.508893025076e-10 3.246451948957e-10 1.874202216190e-10 3.665702703882e-11 8.799341657110e-11 3.270778504116e-10 2.013184065784e-10 2.081605669808e-10 2.033905869427e-10 3.182534536994e-10 2.019108104393e-10 3.980738728512e-10 3.335978534689e-10 5.033128886871e-10 3.191658267963e-10 2.581505364111e-10 1.096330965482e-10 2.861173145512e-10 3.184342686454e-10 1.783978275293e-10 3.564151031089e-10 2.236833553668e-10 1.850553976559e-10 4.508481191987e-11 3.395211836873e-10 3.665219234526e-10 2.304349900366e-10 3.683682746748e-10 3.234502203722e-10 5.295406460166e-10 3.757305303807e-10 3.728664237155e-10 2.637272516482e-10 2.011026867493e-10 1.324690400486e-10 5.250753328891e-10 4.268067631933e-10 2.690322946759e-10 4.571250555358e-10 2.969760676855e-10 4.389423682329e-10 2.037710388880e-10 3.292408700002e-10 2.656832930109e-10 -5.202608407470e-11 -2.255068560272e-12 7.878188423542e-11 -2.476584027554e-11 1.002877295775e-11 3.865378333529e-12 -5.857117919289e-11 -3.083592104170e-11 1.241220269044e-10 3.358035804222e-11 2.735985716413e-11 1.191738078973e-10 4.115581384623e-11 4.859689988296e-11 1.017176247049e-10 6.933976672102e-12 2.353255725954e-11 1.160481644836e-10 1.824725271237e-11 2.838428964706e-11 2.113412020510e-10 6.417389301981e-11 8.415363015448e-11 1.683590495369e-10 4.668609047711e-11 9.423412103535e-11 1.413175457941e-10 3.325032303167e-11 8.407402780510e-12 7.442672756851e-11 -4.692336697511e-12 -1.275169994192e-11 1.612223199453e-11 2.354265595226e-11 -9.114414028108e-12 -3.348580250184e-11 -4.093126950704e-11 -5.197159674914e-11 9.035872825794e-11 2.061207846838e-11 1.166658214564e-11 3.643970374905e-11 -2.518263513164e-11 1.893374688623e-11 1.787740345571e-10 7.778562931032e-11 5.671000556087e-11 6.841411387569e-11 1.909125935320e-11 1.047374720726e-10 1.592957404800e-11 3.928639499221e-11 1.931491477089e-10 8.118241225228e-11 6.277340441253e-11 1.553029345147e-10 9.313524489570e-11 6.813771937083e-11 8.534578202371e-11 2.790983730116e-11 1.715039468406e-11 1.005005294462e-10 8.229740239979e-12 3.285408453356e-12 3.554971600599e-11 -1.821211213883e-11 -1.779720930090e-11 1.395369923002e-10 7.471858141067e-11 3.478135132540e-11 -2.871444039544e-11 1.842418662115e-10 6.494199036136e-11 3.550143062555e-11 8.806039213076e-12 1.407785641431e-10 4.842621788438e-11 1.827963245504e-10 6.698195218423e-11 1.381604388129e-10 1.056549232218e-10 5.519939867606e-11 1.148277021142e-10 1.018608130207e-10 1.067540457172e-10 8.747390675582e-11 1.757129938535e-10 5.977805051633e-11 7.762158998061e-11 1.196678021914e-10 2.385810631057e-10 -1.311647246858e-11 6.058179659698e-11 1.077353826901e-11 1.469733704184e-10 8.114508019977e-11 1.708872720729e-10 2.389642566354e-10 1.754726666342e-10 1.491085573065e-11 7.105111495514e-11 2.524283808018e-11 -3.897566403839e-11 4.869436072996e-10 1.522716814309e-10 1.332269795251e-10 2.681489759177e-11 2.935332842320e-10 3.787254857515e-10 1.183026757039e-11 3.255450267721e-11 -2.232257194187e-11 4.746986820094e-10 5.521535657691e-11 -6.782128296764e-11 1.132134669144e-10 9.440157947402e-11 3.337177681025e-10 4.484127250453e-10 2.852048726344e-11 -2.202797669703e-11 -3.955205386892e-11 4.604318127260e-11 4.273197209593e-10 -5.578788645700e-11 4.337817517802e-10 1.250900379504e-10 1.539957480962e-10 1.289490454308e-10 3.129112142079e-10 -3.588751742735e-11 9.691106508368e-12 4.129865603094e-10 4.515435218755e-10 7.382410263794e-11 3.603270760086e-11 5.038285604059e-11 4.404786671614e-12 3.441007429584e-10 2.491343883187e-10 1.562315050285e-10 3.273091219964e-11 5.689456904010e-11 2.713798435895e-11 9.062337758183e-11 1.057246795775e-10 1.096867627591e-10 1.100907109123e-10 2.441276279166e-11 8.428273168007e-11 4.561816934099e-11 1.028948373746e-10 6.670317173548e-11 -7.559803004530e-11 -1.367875272415e-11 -3.900136796877e-11 -2.008003789324e-11 4.457963564709e-10 2.667566738106e-10 2.515952886416e-11 9.607789447628e-11 1.958355508880e-10 2.491290009126e-10 1.342781908510e-10 4.308317740236e-11 2.432071936698e-11 2.339845310993e-11 2.011509609101e-10 2.189000548218e-10 8.510397076816e-11 8.242832126269e-11 5.201625079649e-11 2.594925793687e-12 -1.057827839582e-10 4.596576454085e-10 -4.941025356921e-12 3.550027122135e-10 3.906320320804e-10 4.589454753318e-10 1.462507594413e-10 3.473458217429e-10 3.443873429429e-10 1.829620217039e-10 -5.730223006948e-11 -3.775571658470e-11 -3.297411207471e-11 -2.371342003850e-11 -8.927435556066e-11 -1.031365160783e-10 -6.623849451612e-11 -4.009646643483e-12 1.970804671995e-11 -8.328555106994e-12 2.192684280540e-13 2.577627078635e-12 2.308521828695e-11 -3.770523689777e-11 -3.840870588125e-11 -3.146606265056e-12 -1.644475579372e-12 -1.574759724567e-11 1.925291812961e-11 1.245463244057e-10 4.527824967173e-11 6.385462009592e-11 2.186548082532e-11 3.404638552150e-11 3.855409230460e-11 1.570514368782e-11 4.967720339906e-11 3.634722029441e-10 1.790452356276e-10 1.079506602905e-10 3.115936955398e-10 1.404494045651e-10 8.192224423697e-11 6.001980131100e-11 2.051146345806e-11 8.112195833264e-11 4.689083614547e-11 3.191115895714e-11 6.520323866652e-11 2.704321036613e-12 -4.655807988987e-11 -5.878069395159e-11 -1.426114969431e-11 -1.779871268868e-11 1.653792386465e-11 -4.549816545051e-12 -9.399251038721e-12 -3.651105847753e-11 -1.406848110998e-11 -8.169547006239e-11 -1.116681729866e-10 -9.251770666159e-11 -8.860676767647e-11 -8.127319327953e-11 -5.510854653110e-11 -3.335918810158e-11 1.431941514649e-10 1.347824718557e-10 8.791035517452e-11 1.190990854005e-10 1.108271032760e-10 1.424897867461e-10 1.286490221152e-10 9.016419464052e-11 1.201245883431e-10 1.331497957359e-10 1.031348270370e-10 8.326806664069e-11 1.400293985800e-10 1.790534120079e-10 1.881809717795e-10 1.161408946441e-10 1.679345819442e-10 9.553303473984e-11 3.047897310288e-11 -2.034607582601e-11 5.263758408217e-12 1.893010489949e-10 2.725792679119e-10 3.480479698037e-10 2.705802748514e-10 -7.975250126643e-11 1.278622408618e-11 3.422484063836e-10 -5.627312358496e-11 -4.981830155607e-11 -6.700786509332e-11 -2.053617110793e-11 6.600600232523e-12 1.907849719418e-11 1.065196604566e-10 1.973778296053e-10 1.563927852872e-10 1.155645397757e-10 1.832395847211e-10 1.951217527757e-10 8.694462909994e-11 1.649867576980e-10 1.254604064731e-10 4.849863422605e-11 5.791433057926e-11 4.691438746985e-11 4.106950874218e-11 3.487250768191e-11 2.121930120271e-10 1.833185460654e-10 3.349587002659e-10 2.474421588162e-10 1.336205193798e-10 1.333099330614e-10 1.487267927157e-10 2.086475806646e-10 1.275119445613e-10 1.124771388958e-10 4.074155913274e-11 4.799973023658e-11 3.275367179649e-11 -5.596064385002e-11 -5.482196658298e-11 1.315631304961e-11 1.301764736600e-10 8.287863265290e-11 1.049055658581e-10 3.454787929260e-11 1.351874916807e-10 1.647876078307e-10 1.267908575404e-10 1.827942201892e-10 5.324238260198e-11 7.456421590375e-11 1.408609300491e-10 9.427589862205e-11 3.116497177489e-11 -1.988807657108e-11 3.296487756259e-11 5.201629497366e-12 7.356900597901e-11 -4.478113959384e-11 4.641978251890e-11 -1.482445090159e-11 -2.424310646663e-11 -1.091812689505e-11 5.580595102420e-11 4.364781259155e-11 1.097527028585e-10 1.111144671952e-10 4.224716713917e-11 -2.697075892338e-11 6.712712053920e-11 -2.830252122136e-11 -1.252668113609e-10 -1.325179933024e-10 -1.055049725834e-10 5.775335586737e-11 1.301475201820e-10 6.296785682723e-12 2.326181167668e-11 1.980029334748e-10 1.271564906320e-10 1.756306778555e-11 1.640204801948e-11 2.470656101105e-11 4.933948870257e-10 9.672785073957e-11 4.591246638852e-11 1.294868392107e-10 1.336819371189e-11 1.200192431852e-10 9.269749731824e-11 6.186409047775e-11 3.424589792010e-11 1.020212376391e-10 1.743607363955e-10 1.930912744207e-10 1.642042312431e-10 6.317471468002e-11 7.985973594271e-11 6.009248647328e-10 4.358243129721e-10 2.910911246354e-10 2.705830200166e-10 3.058545598445e-10 2.326913462141e-10 2.775317357497e-10 2.030974221259e-10 2.030628375802e-10 2.527473326465e-10 1.452457248458e-10 2.514682948247e-10 2.565967104612e-10 4.035407397554e-10 3.297049713066e-10 8.636928126406e-11 4.706350264452e-10 4.711646756377e-10 2.958482005158e-11 -1.314801084365e-12 2.908647581823e-11 2.880253824886e-11 1.302527672010e-10 1.555098953451e-10 1.483673439417e-10 1.608680150028e-10 1.383180832142e-10 5.061949552386e-10 3.432798617531e-10 4.310773313103e-10 2.774387707813e-10 2.996557804143e-10 7.273951871486e-11 1.408690970043e-10 -2.279446664106e-13 -7.917804914951e-11 -6.559660134873e-11 1.106861755150e-11 1.239549896877e-12 1.211298209224e-10 1.491791484478e-10 3.118882015472e-10 3.543067357753e-10 2.506441708674e-10 2.928903634404e-11 2.493334829237e-11 1.132154351702e-10 9.051889146041e-11 8.585693630821e-11 1.639820543742e-11 3.062595131795e-10 -6.808308483449e-11 -6.062388583414e-11 -3.345269366927e-11 2.866261673156e-10 6.806309090508e-11 3.045723896631e-10 -4.313245273409e-11 -3.330413862235e-11 -5.989066924485e-11 2.111657138166e-10 2.407256015678e-10 1.951209352330e-10 -8.447644989670e-11 4.065083287853e-10 3.801054064733e-10 3.943856480957e-10 2.243360797691e-12 1.882365944270e-10 1.748953532607e-10 1.477430751807e-10 1.502505480809e-10 -2.044219282419e-11 -6.385098155731e-11 1.586951387936e-10 1.746429131840e-10 1.813315612961e-10 9.424232757994e-11 1.701612159877e-10 1.444055930154e-10 1.886766917953e-10 -3.203384064387e-11 -4.629082425176e-11 1.797460973991e-11 1.237092641868e-10 2.836727582403e-10 1.168496338898e-10 1.762383418270e-10 4.191772708587e-10 1.787036315406e-10 -2.340524797623e-11 3.762268689401e-10 3.733360332900e-10 5.800613160692e-10 -6.613484700803e-11 -1.554170172481e-11 5.022836531852e-10 -1.324729706944e-11 2.067871283843e-10 1.501998612761e-10 1.557271054278e-11 2.145186450802e-11 1.390830121629e-11 1.907299292627e-10 4.812093082634e-10 -7.091331778272e-11 3.333360807927e-12 -4.302329242624e-11 4.763152586007e-11 3.866642508945e-11 -4.352840909234e-11 -2.029044369363e-11 -2.689739488537e-11 4.186939532060e-12 5.720589090825e-10 2.047171760593e-10 3.888002101381e-11 5.789599506244e-11 8.210705960738e-11 1.779992714751e-10 1.341798536575e-10 1.206945914739e-10 2.668896710867e-11 2.183975660579e-10 1.046513095185e-10 3.303381660882e-10 2.813440250194e-10 6.131504963976e-13 1.749225975083e-10 5.587053772204e-10 1.600442147025e-10 4.421487472060e-10 4.991200337312e-10 3.963037812530e-10 2.467041435459e-13 3.561276566133e-11 4.017032673860e-11 5.821394346752e-12 1.402175617655e-11 1.099462821457e-10 1.457706790417e-10 8.908518455435e-11 2.430665808512e-10 7.825417920940e-11 5.394047587728e-11 1.643125935341e-11 3.317536314306e-11 9.206994131915e-11 -6.538748388972e-11 -1.990759403751e-11 -1.072764742809e-11 4.725138554519e-11 3.673633909069e-10 -2.379635342400e-11 1.080002039120e-10 1.111182157887e-10 -3.604679800937e-11 -4.485374025368e-11 1.691989537184e-10 7.296630701630e-11 3.005844000051e-11 1.553801985592e-10 2.099990692091e-11 8.062507609086e-11 2.771614581000e-11 9.315251046655e-11 -8.871107037647e-11 7.862004782280e-12 1.343136729580e-10 3.324048616861e-11 2.216611399458e-10 1.513441790038e-10 1.802859722450e-11 1.449100497836e-10 -9.701958394475e-12 1.413152977024e-11 2.040254373139e-10 2.708986930538e-11 6.790957229784e-12 1.489238464712e-10 1.200886015995e-10 1.256121986254e-10 7.920855819489e-11 1.407685378054e-10 2.054954235656e-11 1.797945350544e-11 -3.834732827664e-11 1.787165190888e-11 4.317439892921e-11 1.615878715068e-10 -4.446550835748e-11 6.589462479924e-11 4.102332603331e-12 4.159221814435e-11 -1.835463394952e-11 3.024998246994e-11 9.657238060510e-11 3.193944136483e-12 -3.825130484646e-11 8.546763613767e-13 -1.057978572620e-11 6.484151273908e-11 3.550633355401e-11 -4.387758284714e-11 -5.511525673372e-11 1.778302663657e-10 4.288869446221e-11 1.545991186767e-11 8.439649620257e-11 -4.055494409397e-11 1.721337721567e-10 9.507856026042e-11 2.109148815040e-10 2.641601421211e-10 -3.945465077735e-11 1.084944847400e-10 2.191265441215e-11 -2.047070147115e-11 1.836961992747e-10 4.804059152077e-11 6.133986534633e-11 1.887590570146e-10 6.160025835545e-10 4.947767071698e-10 -3.888744950330e-11 7.733327559594e-11 2.399371276839e-11 2.171828128716e-11 1.173724256892e-10 -6.255513217612e-12 1.371281221905e-11 4.429674087027e-11 -2.875450882768e-11 -1.494196333735e-11 5.925645631368e-11 -3.060780850597e-11 -7.089531031823e-11 1.229969690117e-10 7.827736681815e-11 -9.710765702115e-13 1.390598817773e-10 1.218574369271e-10 8.209489636786e-11 5.896991290450e-10 1.444171114580e-10 1.912333116694e-10 1.113300503476e-10 7.352958652779e-12 -5.208365312749e-11 7.212938220399e-10 9.213303864326e-10 3.728486393383e-10 7.928790239483e-10 4.624236211727e-10 7.435868132094e-10 6.383115927829e-10 7.350658252904e-10 8.472775567900e-10 6.398205755766e-10 7.586348998984e-10 4.937490646557e-10 1.100651842642e-10 6.709516777462e-10 7.329086292424e-10 6.449983711320e-10 3.275816593888e-10 7.990302706456e-10 3.432114156973e-10 4.387657338212e-10 7.115524646220e-10 7.363356952491e-10 4.094263100679e-10 5.708853045360e-10 4.239577948786e-10 6.411400936537e-10 6.248340607929e-10 5.439530500918e-10 4.623888813202e-10 6.780761029181e-10 8.855877182702e-10 2.311742588915e-10 7.129878043663e-10 5.109998034311e-10 6.521374325985e-10 4.750163205837e-10 5.375610090694e-10 5.208803342663e-10 5.128075615761e-10 6.909868164077e-10 2.482060419912e-10 6.011024426012e-10 5.965573331071e-10 7.309890959778e-10 1.983918515055e-10 1.767161711642e-10 2.971529991993e-10 6.813378475082e-10 1.718265041900e-10 7.902459745801e-10 4.784312209742e-10 6.268596815533e-10 4.072326569067e-10 1.390374954271e-10 7.066342039882e-10 4.714674190652e-10 6.061953990367e-10 3.048696478377e-10 6.309079507803e-10 7.522713192449e-10 5.196252133726e-10 5.285204100925e-10 6.746305717475e-10 7.207846179620e-10 6.948605314099e-10 4.626446447983e-10 2.259157307743e-10 3.226176171640e-10 6.430399406876e-10 7.219407185938e-10 2.756627488924e-10 7.121389617635e-10 2.303055437561e-10 8.584445755427e-11 8.447290066640e-10 5.011519691003e-10 7.553261253313e-10 5.091128635931e-10 9.020531263003e-10 6.006307564354e-10 7.217454184281e-10 4.776531109707e-10 5.022286473401e-10 4.791715685612e-10 5.376506387816e-10 2.711369927056e-10 3.316955942920e-10 6.540966708500e-10 1.389624107621e-10 6.947042337598e-10 5.001043840939e-10 7.005317098032e-10 5.126171538894e-10 4.841994962595e-10 4.709618527433e-10 7.193685193536e-10 3.807139839001e-10 -1.297779350322e-10 2.360440412851e-10 2.509716106918e-10 6.322316725269e-10 2.144547762762e-10 4.311395586621e-10 4.416218376790e-10 4.402609939886e-10 6.970018490087e-10 4.453402500174e-10 7.281716070179e-11 7.349393741045e-10 6.866839610251e-10 4.055259847112e-10 6.760606850771e-10 7.414685590894e-10 5.948139805583e-10 4.815788814285e-10 3.273330134433e-10 4.267141937279e-10 6.747233545423e-10 3.369310200251e-10 5.033359989690e-10 5.409933537851e-10 8.621474944822e-10 5.730727716167e-10 5.565768111729e-10 6.774901370361e-10 5.839232148662e-10 5.438321591443e-10 -6.889204973348e-11 1.209833414984e-10 2.319580970637e-10 2.171960975799e-10 1.937058294198e-10 4.472844360327e-10 7.828978234688e-10 1.929845303904e-10 4.595127768629e-10 5.753051687076e-10 7.139229302387e-10 6.887794761877e-10 1.243674922807e-10 6.155787138313e-10 5.827054828828e-10 3.169811687010e-10 6.179934887511e-10 4.545943290963e-10 7.165789595201e-10 4.323505139247e-10 7.859436839840e-10 2.326995786596e-10 2.273622803626e-10 4.622522535048e-10 4.090472787577e-10 4.811538511927e-10 3.893140225871e-10 3.839694552107e-10 2.998845043107e-10 7.556053085908e-11 7.441382630279e-10 8.269132679212e-10 1.860609464081e-10 6.473980658089e-10 7.115547068135e-10 5.945705432687e-10 7.279839541092e-10 4.564802048659e-10 3.179544232678e-10 5.839338057834e-10 2.679201991441e-10 2.782154515395e-10 1.661508140351e-10 6.434506715387e-10 7.461065357918e-10 5.520305402874e-10 7.842829976779e-10 2.883026723520e-10 3.358385624146e-10 6.564417502392e-10 6.445393547236e-10 6.721366005325e-10 6.664210830960e-10 5.649911842042e-10 2.294800105826e-10 2.532297287799e-10 6.437696155176e-10 6.810727611923e-10 5.869380733733e-10 4.260327648898e-10 3.644422460052e-10 7.028013407844e-10 4.017567979611e-10 6.791458622536e-10 4.566103221479e-10 5.649637235618e-10 -1.311074149757e-11 4.592501003338e-10 5.937220386590e-11 6.375368108847e-10 2.606896160894e-10 4.890085464562e-11 2.907440805089e-10 2.182503451283e-10 6.701066752560e-10 5.341053892768e-10 6.295604605270e-10 1.195821752993e-10 3.110909661640e-10 5.622552198988e-10 5.830314810257e-10 -6.518340059427e-11 1.084926563811e-10 1.476873251119e-10 2.977372282100e-10 3.627068779429e-10 3.779449210806e-10 4.480106294912e-10 2.546662716024e-10 8.845067247142e-10 5.926317690168e-10 3.691076492729e-10 1.811900210762e-10 1.528672130294e-10 4.909828944068e-10 5.882252429768e-10 7.586744745652e-10 4.458601572536e-10 5.284393057881e-10 2.458099277900e-10 2.456818270633e-10 7.244376658335e-10 6.596172912462e-10 7.236715619585e-10 2.525037740508e-10 4.731471646008e-10 1.870121387989e-10 7.834901464077e-11 6.758485067036e-10 5.804177258939e-10 5.776024512568e-10 7.157532929108e-10 4.023100540620e-10 -7.483825159505e-11 -3.280670499091e-11 4.013894789193e-10 3.794833307393e-10 5.095039771397e-11 5.264037212130e-10 6.859581878655e-10 4.390937450551e-10 6.564742224511e-10 -1.293622323531e-10 6.242049221357e-11 
        </DataArray>
        <DataArray type="Float64" Name="STRAIN_YY" format="ascii">
          7.319994291114e-04 7.319992635814e-04 7.319992335161e-04 7.320000572987e-04 7.319999814144e-04 7.320000960916e-04 7.320001534061e-04 7.319999936491e-04 7.320000033415e-04 7.319994929955e-04 7.319996033556e-04 7.319996271841e-04 7.319999122617e-04 7.319999773617e-04 7.320000618122e-04 7.320008360537e-04 7.320005538873e-04 7.320006679007e-04 7.320004343769e-04 7.320006952438e-04 7.320001949266e-04 7.320002132264e-04 7.320002236009e-04 7.320007916540e-04 7.320007557868e-04 7.320008673015e-04 7.320002154135e-04 7.320003860962e-04 7.320003516526e-04 7.319993502124e-04 7.319994449371e-04 7.319996704264e-04 7.319997859405e-04 7.319999345457e-04 7.319997980606e-04 7.320001691770e-04 7.320000340228e-04 7.320003262618e-04 7.320000194342e-04 7.319998656807e-04 7.320005214562e-04 7.320006732368e-04 7.320003749843e-04 7.320003991278e-04 7.320010053736e-04 7.320010211141e-04 7.320012218735e-04 7.320002822306e-04 7.320001746335e-04 7.320000899169e-04 7.320000784652e-04 7.320004829826e-04 7.319999748490e-04 7.320001292095e-04 7.320005268367e-04 7.320001175122e-04 7.320002841416e-04 7.319994417411e-04 7.319995925677e-04 7.319997683005e-04 7.319997890676e-04 7.320003587372e-04 7.320005147280e-04 7.319996242933e-04 7.319997823195e-04 7.320004031174e-04 7.320005595134e-04 7.319999993850e-04 7.320000980499e-04 7.319997811787e-04 7.319997816074e-04 7.319997843454e-04 7.319998611879e-04 7.319999559251e-04 7.320001620197e-04 7.320001499633e-04 7.320007310872e-04 7.320006648344e-04 7.320000448687e-04 7.319999854209e-04 7.320000423143e-04 7.320001704274e-04 7.320001348111e-04 7.320004454026e-04 7.320005774752e-04 7.319999061495e-04 7.319999741480e-04 7.319996619444e-04 7.319996110139e-04 7.320002737620e-04 7.320005686391e-04 7.319998851968e-04 7.320010687863e-04 7.320013802328e-04 7.320008236162e-04 7.320014246846e-04 7.319999830302e-04 7.320000030494e-04 7.320002597211e-04 7.320006490024e-04 7.320000921705e-04 7.320002251253e-04 7.320009180568e-04 7.320007749470e-04 7.320008400189e-04 7.320012212515e-04 7.320007742615e-04 7.319997033255e-04 7.320001442626e-04 7.319995893890e-04 7.319995189117e-04 7.319994797252e-04 7.320000832202e-04 7.320000406068e-04 7.320002377805e-04 7.320002679081e-04 7.320000593283e-04 7.320000707724e-04 7.319995486546e-04 7.319996565556e-04 7.319997023997e-04 7.319999728758e-04 7.320000065172e-04 7.320000882631e-04 7.320010886751e-04 7.320007977904e-04 7.320008361858e-04 7.320005908670e-04 7.320008772216e-04 7.320004242863e-04 7.320004684805e-04 7.320002971185e-04 7.320010690697e-04 7.320009761533e-04 7.320011344603e-04 7.320003807953e-04 7.320005425524e-04 7.320005378189e-04 7.319995449252e-04 7.319996259939e-04 7.319997548919e-04 7.319998854308e-04 7.320000623133e-04 7.319998663080e-04 7.320002775507e-04 7.320000773978e-04 7.320004831383e-04 7.320001081477e-04 7.320000097804e-04 7.320008334836e-04 7.320008483326e-04 7.320006406608e-04 7.320006229636e-04 7.320013432861e-04 7.320013052877e-04 7.320015070227e-04 7.320004158213e-04 7.320003709368e-04 7.320002452066e-04 7.320002183987e-04 7.320006617086e-04 7.320001776049e-04 7.320002591057e-04 7.320007390780e-04 7.320001812858e-04 7.320004343081e-04 7.319995988180e-04 7.319997305613e-04 7.319998815083e-04 7.319999195181e-04 7.320005103405e-04 7.320006217690e-04 7.319997807557e-04 7.319999364178e-04 7.320005092367e-04 7.320006342964e-04 7.320000478849e-04 7.320001763249e-04 7.319999123182e-04 7.319997791454e-04 7.319998382458e-04 7.319999260935e-04 7.320000465755e-04 7.320003654163e-04 7.320003495148e-04 7.320009119592e-04 7.320008090650e-04 7.320002165233e-04 7.320001138166e-04 7.320001284141e-04 7.320002938774e-04 7.320002286299e-04 7.320006442941e-04 7.320007597532e-04 7.320000099171e-04 7.320000850049e-04 7.319997064575e-04 7.319996617791e-04 7.320005362228e-04 7.320007391258e-04 7.320000529942e-04 7.320014577045e-04 7.320019127112e-04 7.320011330381e-04 7.320017730084e-04 7.320000444099e-04 7.320001357576e-04 7.320004031128e-04 7.320008992671e-04 7.320002391293e-04 7.320005794739e-04 7.320012270882e-04 7.320010472594e-04 7.320012245364e-04 7.320015391762e-04 7.320010922420e-04 7.319997711935e-04 7.320002418883e-04 7.319992263490e-04 7.319995089248e-04 7.320018429471e-04 7.320014224419e-04 7.319996734803e-04 7.319996658162e-04 7.319997393132e-04 7.319995109300e-04 7.319994549100e-04 7.319993842574e-04 7.320003389048e-04 7.320012512894e-04 7.320012143719e-04 7.320003267772e-04 7.320011478087e-04 7.320012116737e-04 7.320004011217e-04 7.320011520591e-04 7.320012348615e-04 7.320006464266e-04 7.320014689001e-04 7.320013831218e-04 7.319995373698e-04 7.319992853467e-04 7.319993307374e-04 7.319994800716e-04 7.319993225654e-04 7.319992924609e-04 7.319997634683e-04 7.319999063421e-04 7.319998985433e-04 7.319996207494e-04 7.319996507774e-04 7.319996394586e-04 7.320004153325e-04 7.320012848992e-04 7.320011657048e-04 7.320004837109e-04 7.320012119620e-04 7.320012344543e-04 7.319994374853e-04 7.319994144086e-04 7.319994731217e-04 7.319993822169e-04 7.319993129229e-04 7.319992884454e-04 7.319998216810e-04 7.320006310225e-04 7.320006218405e-04 7.320004078978e-04 7.320011933918e-04 7.320011868241e-04 7.319995872869e-04 7.319995774433e-04 7.319995016085e-04 7.320001078538e-04 7.320009282655e-04 7.320009719579e-04 7.319995779293e-04 7.319995383929e-04 7.320002633665e-04 7.320010457833e-04 7.320010699445e-04 7.319997461662e-04 7.319997991428e-04 7.319998195116e-04 7.319998795423e-04 7.319998042685e-04 7.319998015008e-04 7.320001460087e-04 7.320003519752e-04 7.320000410982e-04 7.320007624996e-04 7.320007393923e-04 7.319999387525e-04 7.319999530921e-04 7.320000418159e-04 7.319998610468e-04 7.319998134173e-04 7.319999357042e-04 7.319999445916e-04 7.320000188307e-04 7.320007848629e-04 7.320006885232e-04 7.319997037986e-04 7.319996910169e-04 7.319997990813e-04 7.319998483474e-04 7.319995357284e-04 7.319995466035e-04 7.319995829430e-04 7.319995843640e-04 7.319995854315e-04 7.319996312376e-04 7.319996432319e-04 7.319995730784e-04 7.320000198180e-04 7.319999181096e-04 7.319999038571e-04 7.320000180817e-04 7.319994409440e-04 7.319992768104e-04 7.319992630511e-04 7.320002530872e-04 7.320010008770e-04 7.320009551766e-04 7.320005141966e-04 7.320013507898e-04 7.320012671598e-04 7.319994011001e-04 7.319993942328e-04 7.319993484937e-04 7.319998573406e-04 7.320006931563e-04 7.320004098241e-04 7.319997072004e-04 7.319996643646e-04 7.319998256387e-04 7.319998518209e-04 7.319996001374e-04 7.319996511771e-04 7.319994623119e-04 7.319993260502e-04 7.319997638745e-04 7.319997507125e-04 7.319998047166e-04 7.319997409267e-04 7.320005496362e-04 7.320013301772e-04 7.319995164097e-04 7.319993739151e-04 7.320008729505e-04 7.320016380040e-04 7.320003380276e-04 7.320010911105e-04 7.320010624204e-04 7.320001244760e-04 7.320001706656e-04 7.319996600009e-04 7.319996580051e-04 7.319997467921e-04 7.320001882653e-04 7.320000385440e-04 7.320000543567e-04 7.320002577958e-04 7.319999759453e-04 7.319994423182e-04 7.319994454464e-04 7.319994546036e-04 7.319994777014e-04 7.319994518159e-04 7.319995037870e-04 7.319994986088e-04 7.319994075311e-04 7.319994361622e-04 7.319994801201e-04 7.319994906058e-04 7.319995422255e-04 7.320001189228e-04 7.320000223379e-04 7.320000627077e-04 7.320002468283e-04 7.320001029501e-04 7.320002156000e-04 7.320001552954e-04 7.320003020258e-04 7.320003577345e-04 7.319996799360e-04 7.319997492184e-04 7.319996693304e-04 7.319996188851e-04 7.319995240892e-04 7.319995179031e-04 7.319994766337e-04 7.319998702839e-04 7.320004261525e-04 7.320012239962e-04 7.319999405001e-04 7.319999129499e-04 7.319998160257e-04 7.319999108119e-04 7.319998306836e-04 7.319997706996e-04 7.319998283139e-04 7.319996755027e-04 7.319996842450e-04 7.319996070366e-04 7.319997507157e-04 7.319997320766e-04 7.319996643191e-04 7.319995975045e-04 7.319998663060e-04 7.319999406074e-04 7.319997920580e-04 7.319997419558e-04 7.319996961143e-04 7.319996499319e-04 7.319997363958e-04 7.319997305866e-04 7.319997203541e-04 7.319996460227e-04 7.319997278983e-04 7.319998163836e-04 7.319998280556e-04 7.319997641999e-04 7.319994079830e-04 7.319993429642e-04 7.319998898832e-04 7.319997630603e-04 7.320000249567e-04 7.320001091220e-04 7.320001346091e-04 7.319999581310e-04 7.319994957079e-04 7.319995372437e-04 7.319994744921e-04 7.319995272756e-04 7.319994645549e-04 7.319995111764e-04 7.319994337555e-04 7.319994497686e-04 7.319997108412e-04 7.319996138537e-04 7.319996331775e-04 7.319998172883e-04 7.319997739056e-04 7.319996406219e-04 7.319996232476e-04 7.319995456837e-04 7.319996087784e-04 7.319999331532e-04 7.320000744884e-04 7.319999911683e-04 7.319997467904e-04 7.319997353480e-04 7.319999746419e-04 7.320000038981e-04 7.319998735279e-04 7.319996426656e-04 7.319997848576e-04 7.319996731929e-04 7.319995971070e-04 7.319995367748e-04 7.320002532465e-04 7.320004011267e-04 7.320003107170e-04 7.319997976500e-04 7.319995330630e-04 7.319995025493e-04 7.319993967837e-04 7.319992333461e-04 7.320007653524e-04 7.320016096879e-04 7.319995843597e-04 7.319994910923e-04 7.320011066078e-04 7.320018824384e-04 7.319995324715e-04 7.319996140661e-04 7.319995784942e-04 7.320000934721e-04 7.320007989313e-04 7.320009011467e-04 7.319994619251e-04 7.319995377399e-04 7.319995451916e-04 7.319993992073e-04 7.319993669580e-04 7.319994129154e-04 7.319995437119e-04 7.319995965000e-04 7.319995453876e-04 7.319996289540e-04 7.319996404276e-04 7.319995918136e-04 7.319996793331e-04 7.319997069683e-04 7.320000354482e-04 7.320001657530e-04 7.319997854582e-04 7.319997034899e-04 7.319996936975e-04 7.319997717606e-04 7.319997497135e-04 7.319997324528e-04 7.320001033489e-04 7.319997494623e-04 7.319997487767e-04 7.319995570815e-04 7.319995805700e-04 7.319998870180e-04 7.319998729655e-04 7.320005363327e-04 7.320012565713e-04 7.319996737740e-04 7.319997167722e-04 7.319997908443e-04 7.319996989606e-04 7.319998942645e-04 7.319997149529e-04 7.320000202460e-04 7.320008304440e-04 7.320006061344e-04 7.320005217584e-04 7.320003497360e-04 7.320005804902e-04 7.320002450627e-04 7.319995585374e-04 7.319997271801e-04 7.319998814721e-04 7.319997515867e-04 7.319997448333e-04 7.319997635731e-04 7.319996122914e-04 7.319996265716e-04 7.319995259990e-04 7.319996253088e-04 7.319994357428e-04 7.319994968511e-04 7.319998079721e-04 7.319998620892e-04 7.319999809146e-04 7.320006526314e-04 7.319995149627e-04 7.320006460751e-04 7.320012887320e-04 7.320005967694e-04 7.320012579758e-04 7.319996515359e-04 7.319997053063e-04 7.319996839390e-04 7.319996290866e-04 7.320000670435e-04 7.320001994020e-04 7.320000871930e-04 7.319996205352e-04 7.319996462176e-04 7.319996252395e-04 7.319997021128e-04 7.320000704430e-04 7.319999528007e-04 7.320001623757e-04 7.320009721879e-04 7.319999064411e-04 7.319998500159e-04 7.319998350262e-04 7.319997741570e-04 7.319997652448e-04 7.319999020350e-04 7.319997722623e-04 7.319996396133e-04 7.319997562387e-04 7.319996213219e-04 7.320004450447e-04 7.320005185296e-04 7.320002772359e-04 7.320002609514e-04 7.320002065183e-04 7.320000779291e-04 7.319997405444e-04 7.319999701508e-04 7.319998958965e-04 7.320000304503e-04 7.319999528045e-04 7.319998275252e-04 7.319998880825e-04 7.320000863014e-04 7.320000125463e-04 7.320001955631e-04 7.320002217730e-04 7.319997836225e-04 7.319998268110e-04 7.319997490227e-04 7.319997198036e-04 7.320005912460e-04 7.320002882907e-04 7.319996388224e-04 7.319996443368e-04 7.319996811513e-04 7.320000817435e-04 7.320001099559e-04 7.320000010583e-04 7.319999608143e-04 7.320005731345e-04 7.320001559858e-04 7.319999734812e-04 7.320000611865e-04 7.319994123956e-04 7.319994049042e-04 7.319993575768e-04 7.320004384429e-04 7.319999312800e-04 7.320006154657e-04 7.320007559832e-04 7.319993959701e-04 7.320003766946e-04 7.320004108136e-04 7.320006238532e-04 7.319994856306e-04 7.319995616924e-04 7.319996406695e-04 7.320009242412e-04 7.320006776711e-04 7.320006586508e-04 7.319997765124e-04 7.319996860739e-04 7.319996179825e-04 7.320008329922e-04 7.320014811972e-04 7.319993921936e-04 7.319992639317e-04 7.320011186864e-04 7.320017456231e-04 7.319995793482e-04 7.319994595551e-04 7.319995069704e-04 7.319995186100e-04 7.320001201653e-04 7.320002086461e-04 7.320005112629e-04 7.319994278961e-04 7.319993045981e-04 7.319996207049e-04 7.319996498974e-04 7.320001033639e-04 7.320002269969e-04 7.320002438330e-04 7.320001569239e-04 7.319997791588e-04 7.319999256947e-04 7.319998733853e-04 7.319996253866e-04 7.319997705811e-04 7.320007121925e-04 7.320015366655e-04 7.319995220413e-04 7.319994027814e-04 7.320010725161e-04 7.320018522117e-04 7.319997385011e-04 7.319998869399e-04 7.319995602523e-04 7.319996348487e-04 7.320003136942e-04 7.320002493232e-04 7.320005123682e-04 7.320004611709e-04 7.320000224743e-04 7.319994006660e-04 7.319997764973e-04 7.319997334397e-04 7.319994808674e-04 7.319996610981e-04 7.319995504037e-04 7.320002121618e-04 7.320001637405e-04 7.320001814309e-04 7.320000740123e-04 7.320001356169e-04 7.319999618168e-04 7.319997551602e-04 7.319998683390e-04 7.320000306549e-04 7.319999286395e-04 7.320001229075e-04 7.320002359409e-04 7.320006397263e-04 7.319995836762e-04 7.320005910246e-04 7.319997107064e-04 7.319996367168e-04 7.319996324847e-04 7.319998963334e-04 7.319999543863e-04 7.319994252017e-04 7.319999426263e-04 7.319996930263e-04 7.320005066821e-04 7.319998584860e-04 7.319998484630e-04 7.319998976835e-04 7.319996030563e-04 7.319997939298e-04 7.319998481261e-04 7.319998116662e-04 7.319998487250e-04 7.320000093095e-04 7.320000072629e-04 7.319996020088e-04 7.319995267361e-04 7.320000235401e-04 7.319998560528e-04 7.320002350201e-04 7.320005436104e-04 7.320000173308e-04 7.320006645284e-04 7.320012132773e-04 7.320005560116e-04 7.320003917008e-04 7.320003633843e-04 7.319998516920e-04 7.319999321946e-04 7.319998787194e-04 7.319997060768e-04 7.319996673494e-04 7.320000556317e-04 7.320002118253e-04 7.319999350239e-04 7.319997801497e-04 7.319998894767e-04 7.319997519656e-04 7.319997029789e-04 7.320001161206e-04 7.320004767798e-04 7.319997483152e-04 7.320007588907e-04 7.319995839377e-04 7.319998828727e-04 7.319999483923e-04 7.319997796605e-04 7.319996956201e-04 7.320000394997e-04 7.320000316311e-04 7.319998188316e-04 7.320001257508e-04 7.320000987237e-04 7.320006894724e-04 7.319994688967e-04 7.319995271410e-04 7.319994149899e-04 7.319994142727e-04 7.320005885284e-04 7.319997029332e-04 7.319997072465e-04 7.319996562877e-04 7.319998144292e-04 7.319995735994e-04 7.319997440125e-04 7.319997316695e-04 7.319997645864e-04 7.319995756082e-04 7.319995840161e-04 7.319997694902e-04 7.319998138126e-04 7.319999106671e-04 7.319994867218e-04 7.319994530030e-04 7.319995456743e-04 7.319997212052e-04 7.320008892327e-04 7.319996024232e-04 7.320006583730e-04 7.319998557926e-04 7.320003409266e-04 7.319995421986e-04 7.319999715190e-04 7.319994329786e-04 7.320002155556e-04 7.320003150415e-04 7.319998417608e-04 7.319995534947e-04 7.319996792852e-04 7.319999841749e-04 7.320001641972e-04 7.319996959573e-04 7.319998700480e-04 7.319998189450e-04 7.320002449302e-04 7.319999816854e-04 7.320001509522e-04 7.319993977062e-04 7.319999418046e-04 7.320001667648e-04 7.320004092906e-04 7.319996388702e-04 7.319999332367e-04 7.320000392073e-04 7.319999757724e-04 7.319994131880e-04 7.319994497960e-04 7.319996648862e-04 7.320001721373e-04 7.320003688781e-04 7.320004381964e-04 7.319996642097e-04 7.319994962035e-04 7.319999401584e-04 7.319994769749e-04 7.319993539480e-04 7.319999737444e-04 7.319997028773e-04 7.319998914501e-04 7.320002983064e-04 7.319998922773e-04 7.319999355253e-04 7.319994447463e-04 7.319995451349e-04 7.319995394242e-04 7.319996452789e-04 7.319996884289e-04 7.320000523762e-04 7.319996813592e-04 7.319996379185e-04 7.319998618246e-04 7.320000560169e-04 7.320003213195e-04 7.320004630540e-04 7.319997400888e-04 7.319998590524e-04 7.320000187082e-04 7.319997539298e-04 7.319993905371e-04 7.319995440458e-04 7.319993985188e-04 7.319995012543e-04 7.319994675707e-04 7.319993043150e-04 7.319994478408e-04 7.319994322713e-04 7.319993110623e-04 7.319994316245e-04 7.319994658228e-04 7.319994813780e-04 7.319995391305e-04 7.319995483702e-04 7.319994052242e-04 7.319995005427e-04 7.319995232322e-04 7.319992877068e-04 7.319994089632e-04 7.319994497408e-04 7.319993319921e-04 7.319994581478e-04 7.319994116371e-04 7.319993041891e-04 7.319993852222e-04 7.319994188536e-04 7.319993526899e-04 7.319994322979e-04 7.319994311137e-04 7.319993820228e-04 7.319994431576e-04 7.319994519316e-04 7.319995193610e-04 7.319995810436e-04 7.319996093118e-04 7.319997941131e-04 7.319997384485e-04 7.319997143692e-04 7.319992991617e-04 7.319994296951e-04 7.319994087439e-04 7.319996694221e-04 7.319996472482e-04 7.319996854562e-04 7.319996707122e-04 7.319996524724e-04 7.319996401625e-04 7.319998025413e-04 7.319997682466e-04 7.319997602267e-04 7.319995131833e-04 7.319995751011e-04 7.319995451811e-04 7.319994095592e-04 7.319994714532e-04 7.319994672149e-04 7.319994421920e-04 7.319994973029e-04 7.319995266663e-04 7.319997578717e-04 7.319997298908e-04 7.319997590067e-04 7.319997371360e-04 7.319996915022e-04 7.319996609417e-04 7.319996178070e-04 7.319996308025e-04 7.319996209276e-04 7.319993186150e-04 7.319994824926e-04 7.319994879347e-04 7.319992868645e-04 7.319994741642e-04 7.319995444653e-04 7.319993726670e-04 7.319994264322e-04 7.319995931096e-04 7.319996111123e-04 7.319993277146e-04 7.319993910969e-04 7.319993256316e-04 7.319994353638e-04 7.319992668136e-04 7.319994674660e-04 7.319995746703e-04 7.319993948953e-04 7.319993168221e-04 7.319997013628e-04 7.319993016493e-04 7.319998235256e-04 7.319997604424e-04 7.319997878967e-04 7.319996492911e-04 7.319992975423e-04 7.319997229375e-04 7.319994311748e-04 7.319993739843e-04 7.319993769146e-04 7.319994628129e-04 7.319992892365e-04 7.319995601547e-04 7.319996498050e-04 7.319996133007e-04 7.319995911119e-04 7.319996656668e-04 7.319996577677e-04 7.319994903185e-04 7.319996102332e-04 7.319995990711e-04 7.319995102572e-04 7.319996120616e-04 7.319996124140e-04 7.319995488137e-04 7.319996622376e-04 7.319996497211e-04 7.319995744084e-04 7.319996744802e-04 7.319995407796e-04 7.319996056952e-04 7.319996222376e-04 7.319995075167e-04 7.319995725563e-04 7.319996173200e-04 7.319996393241e-04 7.319996869331e-04 7.319996924402e-04 7.319995113779e-04 7.319995685775e-04 7.319995742740e-04 7.319994476857e-04 7.319995719407e-04 7.319995565221e-04 7.319994460310e-04 7.319995267079e-04 7.319995195765e-04 7.319997154939e-04 7.319997335299e-04 7.319997336044e-04 7.319996275705e-04 7.319996545803e-04 7.319996758924e-04 7.319996966434e-04 7.319997313897e-04 7.319997354849e-04 7.319996007659e-04 7.319996448418e-04 7.319996545130e-04 7.319997307222e-04 7.319997529475e-04 7.319997510631e-04 7.319994724231e-04 7.319995473523e-04 7.319995319862e-04 7.319996229916e-04 7.319997133621e-04 7.319997004166e-04 7.319996622686e-04 7.319997257928e-04 7.319996956064e-04 7.319994360152e-04 7.319995302827e-04 7.319995460048e-04 7.319995026796e-04 7.319996020215e-04 7.319995827362e-04 7.319995367149e-04 7.319996396901e-04 7.319996075915e-04 7.319996642175e-04 7.319996845646e-04 7.319997017764e-04 7.319995847362e-04 7.319996740307e-04 7.319995393294e-04 7.319996497481e-04 7.319994554104e-04 7.319995488319e-04 7.319995011753e-04 7.319994662431e-04 7.319995749195e-04 7.319995350805e-04 7.319995022702e-04 7.319995329598e-04 7.319995574960e-04 7.319995734253e-04 7.319995067303e-04 7.319996774137e-04 7.319994361944e-04 7.319994360837e-04 7.319996269132e-04 7.319997042124e-04 7.319995109673e-04 7.319997083344e-04 7.319996321363e-04 7.319996741291e-04 7.319996457325e-04 7.319995224931e-04 7.319996079269e-04 7.319995827824e-04 7.319994642863e-04 7.319994735561e-04 7.319995962450e-04 7.319995411641e-04 7.319997672427e-04 7.319996739216e-04 7.319997652168e-04 7.319997754578e-04 7.319997233725e-04 7.319997893246e-04 7.319998089688e-04 7.319996972416e-04 7.319997908829e-04 7.319997829701e-04 7.319996977696e-04 7.319997911018e-04 7.319997930335e-04 7.319996834304e-04 7.319997687221e-04 7.319997607362e-04 7.319997197368e-04 7.319998086824e-04 7.319997911007e-04 7.319996103302e-04 7.319996694306e-04 7.319996928909e-04 7.319997793850e-04 7.319998014728e-04 7.319998109568e-04 7.319995858469e-04 7.319996905368e-04 7.319996813684e-04 7.319995796010e-04 7.319997042527e-04 7.319996765281e-04 7.319996303856e-04 7.319997285836e-04 7.319997138322e-04 7.319997712612e-04 7.319998181412e-04 7.319998109266e-04 7.319996799454e-04 7.319997210125e-04 7.319997505282e-04 7.319996022276e-04 7.319997062584e-04 7.319996690052e-04 7.319996712551e-04 7.319997498055e-04 7.319997511266e-04 7.319997523384e-04 7.319998096419e-04 7.319998197954e-04 7.319997148852e-04 7.319997772044e-04 7.319997895408e-04 7.319997680163e-04 7.319998112512e-04 7.319998078678e-04 7.319997066471e-04 7.319997682495e-04 7.319997522020e-04 7.319995899869e-04 7.319996684706e-04 7.319996835333e-04 7.319996883365e-04 7.319998052680e-04 7.319997759093e-04 7.319997083704e-04 7.319998142993e-04 7.319998183280e-04 7.319997369452e-04 7.319998200659e-04 7.319996736352e-04 7.319996891622e-04 7.319996966080e-04 7.319997501307e-04 7.319997693459e-04 7.319998158470e-04 7.319997798886e-04 7.319998136148e-04 7.319996010324e-04 7.319997143594e-04 7.319996723815e-04 7.319996962443e-04 7.319997104812e-04 7.319997201313e-04 7.319996687182e-04 7.319997457583e-04 7.319996787460e-04 7.319995989057e-04 7.319995926175e-04 7.319995285283e-04 7.319995839134e-04 7.319997388218e-04 7.319997532881e-04 7.319997119086e-04 7.319997269561e-04 7.319996512138e-04 7.319996443872e-04 7.319997666900e-04 7.319996995712e-04 7.319997799834e-04 7.319997916884e-04 7.319996038818e-04 7.319996721587e-04 7.319998835775e-04 7.319999188062e-04 7.319998540284e-04 7.319999251911e-04 7.319999366015e-04 7.319998317247e-04 7.319998974222e-04 7.319999137965e-04 7.319998395398e-04 7.319999377355e-04 7.319999264494e-04 7.319998657751e-04 7.319999154097e-04 7.319999420940e-04 7.319998534500e-04 7.319999217611e-04 7.319999233450e-04 7.319997947641e-04 7.319998504366e-04 7.319998240187e-04 7.319997463080e-04 7.319998111419e-04 7.319998169603e-04 7.319997510078e-04 7.319998421985e-04 7.319998491084e-04 7.319997541116e-04 7.319998277107e-04 7.319997934030e-04 7.319997330224e-04 7.319998242068e-04 7.319998398342e-04 7.319997546178e-04 7.319998366279e-04 7.319998588738e-04 7.319998679863e-04 7.319999712758e-04 7.319999652707e-04 7.319998780017e-04 7.319999594980e-04 7.319999339488e-04 7.319998614564e-04 7.319999208012e-04 7.319999362496e-04 7.319998236005e-04 7.319999137218e-04 7.319998958799e-04 7.319998326661e-04 7.319998933901e-04 7.319998990556e-04 7.319997906817e-04 7.319998770055e-04 7.319998793306e-04 7.319997928672e-04 7.319998590336e-04 7.319998856984e-04 7.319998471885e-04 7.319999258301e-04 7.319999504192e-04 7.319998335407e-04 7.319998991182e-04 7.319998986241e-04 7.319998691875e-04 7.319999415080e-04 7.319999121194e-04 7.319998010028e-04 7.319998781951e-04 7.319998593739e-04 7.319998298868e-04 7.319999140129e-04 7.319998435191e-04 7.319998689084e-04 7.319999628651e-04 7.319997898020e-04 7.319998672451e-04 7.319997333007e-04 7.319998294580e-04 7.319997244360e-04 7.319998228807e-04 7.319997982516e-04 7.319998893459e-04 7.319998624536e-04 7.319998632656e-04 7.319998049625e-04 7.319997518160e-04 7.319997780674e-04 7.319998511165e-04 7.319997540061e-04 7.319998537582e-04 7.319998825120e-04 7.319998192335e-04 7.319998493299e-04 7.319998199967e-04 7.319998103236e-04 7.319998787627e-04 7.319997471593e-04 7.319998110217e-04 7.319998474893e-04 7.319997190002e-04 7.319997404749e-04 7.319997982096e-04 7.319999670918e-04 7.320000186586e-04 7.320000085272e-04 7.320000570312e-04 7.320000560359e-04 7.319999654605e-04 7.320000251435e-04 7.320000346659e-04 7.320000218658e-04 7.320000558801e-04 7.320000713767e-04 7.319999811294e-04 7.320000435941e-04 7.320000285746e-04 7.319999820596e-04 7.320000382609e-04 7.320000246525e-04 7.319999062461e-04 7.319999360495e-04 7.319999310909e-04 7.319998728650e-04 7.319999294823e-04 7.319999495305e-04 7.319998884643e-04 7.319999713282e-04 7.319999720295e-04 7.319999179474e-04 7.320000048640e-04 7.320000114856e-04 7.319999122794e-04 7.320000044303e-04 7.320000185720e-04 7.320000111481e-04 7.320000862250e-04 7.320000835209e-04 7.320000275827e-04 7.320000804360e-04 7.320000610031e-04 7.319999780889e-04 7.320000127873e-04 7.320000320493e-04 7.319999427587e-04 7.319999919688e-04 7.320000063142e-04 7.319999507863e-04 7.320000349633e-04 7.320000078943e-04 7.319999641330e-04 7.320000289964e-04 7.320000323578e-04 7.319999285716e-04 7.319999955671e-04 7.319999959824e-04 7.319999406161e-04 7.320000429532e-04 7.320000576514e-04 7.320000275617e-04 7.320000876604e-04 7.320001107083e-04 7.319999773517e-04 7.320000476659e-04 7.319999909286e-04 7.319999499372e-04 7.320000287769e-04 7.320000232241e-04 7.320000946376e-04 7.319998824298e-04 7.319999335671e-04 7.319999490627e-04 7.320000125914e-04 7.319999901923e-04 7.320000183235e-04 7.319999796592e-04 7.320000275100e-04 7.319999387203e-04 7.320000050278e-04 7.319998790790e-04 7.319999686180e-04 7.319999281953e-04 7.319999934767e-04 7.319999028094e-04 7.319999841894e-04 7.319999224783e-04 7.320000160912e-04 7.319999855596e-04 7.319999947095e-04 7.319999449053e-04 7.319999317267e-04 7.320000206897e-04 7.319999722056e-04 7.319999965556e-04 7.319998938082e-04 7.319999671754e-04 7.319999531201e-04 7.319999332136e-04 7.319999019255e-04 7.319999878645e-04 7.319999323762e-04 7.319999479365e-04 7.320000396781e-04 7.319999076116e-04 7.320000905085e-04 7.320000097191e-04 7.320000841030e-04 7.320001455343e-04 7.320001242403e-04 7.320000937615e-04 7.320001290855e-04 7.320001543943e-04 7.320001029187e-04 7.320001327635e-04 7.320001331931e-04 7.320000701292e-04 7.320001141675e-04 7.320001373220e-04 7.320000634095e-04 7.320001177607e-04 7.320001425767e-04 7.319999624490e-04 7.320000080823e-04 7.319999985264e-04 7.320000801640e-04 7.320001781711e-04 7.320001598312e-04 7.320001205307e-04 7.320002024268e-04 7.320001791337e-04 7.320000901988e-04 7.320001266913e-04 7.320001695716e-04 7.319999999232e-04 7.320000748224e-04 7.320000564403e-04 7.320000415355e-04 7.320000858948e-04 7.320001033139e-04 7.320000606113e-04 7.320000957538e-04 7.320001151584e-04 7.320000399290e-04 7.320000891333e-04 7.320000706079e-04 7.320000774029e-04 7.320001143540e-04 7.320001199410e-04 7.320000650276e-04 7.320001178029e-04 7.320001122990e-04 7.320000213486e-04 7.320000730275e-04 7.320000305845e-04 7.320000862238e-04 7.320001526267e-04 7.320001442234e-04 7.320001565519e-04 7.320002218826e-04 7.320002114570e-04 7.320001513885e-04 7.320002050720e-04 7.320002041880e-04 7.320000798506e-04 7.320000956164e-04 7.320001033268e-04 7.320000585680e-04 7.320001117595e-04 7.320001087119e-04 7.320001210313e-04 7.320001648992e-04 7.320000687713e-04 7.320001577723e-04 7.320002116438e-04 7.320000687649e-04 7.320001246896e-04 7.320000806834e-04 7.320001352488e-04 7.320000896469e-04 7.320001131886e-04 7.320000682695e-04 7.320001113172e-04 7.319999847082e-04 7.320000610352e-04 7.320001113950e-04 7.320000976995e-04 7.320001122174e-04 7.320000974663e-04 7.320000761408e-04 7.319999917020e-04 7.320001223459e-04 7.320001735298e-04 7.320000494760e-04 7.320000597374e-04 7.320000582083e-04 7.320001394178e-04 7.320000514790e-04 7.319999971346e-04 7.320001136696e-04 7.320000647677e-04 7.320000805187e-04 7.320001182086e-04 7.320000614392e-04 7.320000852538e-04 7.320000441959e-04 7.320000611495e-04 7.320001226489e-04 7.320001852175e-04 7.320001882923e-04 7.320001863464e-04 7.320001765589e-04 7.320001669353e-04 7.320001603234e-04 7.320001539408e-04 7.320001687400e-04 7.320001873942e-04 7.320001810407e-04 7.320001913558e-04 7.320001979270e-04 7.320001902333e-04 7.320002161058e-04 7.320002058092e-04 7.320000501534e-04 7.320000250473e-04 7.320000363590e-04 7.320000958086e-04 7.320000749804e-04 7.320001055516e-04 7.320001044559e-04 7.320001213795e-04 7.320001195892e-04 7.320002000602e-04 7.320002441188e-04 7.320002504884e-04 7.320002360249e-04 7.320002946573e-04 7.320003262119e-04 7.320002400488e-04 7.320002866074e-04 7.320002464521e-04 7.320001954363e-04 7.320002518747e-04 7.320002348538e-04 7.320001376036e-04 7.320001419141e-04 7.320001399326e-04 7.320001082300e-04 7.320001551514e-04 7.320001242548e-04 7.320001070720e-04 7.320001194303e-04 7.320001551892e-04 7.320001568142e-04 7.320001915310e-04 7.320001797073e-04 7.320001440903e-04 7.320001503776e-04 7.320002098505e-04 7.320002715952e-04 7.320003096950e-04 7.320003187419e-04 7.320002928506e-04 7.320003364143e-04 7.320003490634e-04 7.320001232245e-04 7.320001403032e-04 7.320001200536e-04 7.320001536065e-04 7.320001747465e-04 7.320001806289e-04 7.320001567933e-04 7.320001879436e-04 7.320001878414e-04 7.320002647698e-04 7.320003147263e-04 7.320002047430e-04 7.320002673418e-04 7.320000828846e-04 7.320000796795e-04 7.320000568565e-04 7.320001774281e-04 7.320001874493e-04 7.320001434318e-04 7.320001817870e-04 7.320001291207e-04 7.320001645732e-04 7.320001836668e-04 7.320001851671e-04 7.320001576766e-04 7.320001542531e-04 7.320001007766e-04 7.320002582026e-04 7.320002416999e-04 7.320001196905e-04 7.320001482367e-04 7.320001140835e-04 7.320001350179e-04 7.320002552384e-04 7.320001838443e-04 7.320001851527e-04 7.320002077693e-04 7.320001432069e-04 7.320002940505e-04 7.320001273706e-04 7.320001542344e-04 7.320000533941e-04 7.320000576322e-04 7.320000192367e-04 7.320001755282e-04 7.320001382210e-04 7.320001793011e-04 7.320001496479e-04 7.320000907389e-04 7.320001305760e-04 7.320002216237e-04 7.320002109483e-04 7.320002117730e-04 7.320002263013e-04 7.320002175220e-04 7.320002161348e-04 7.320002239333e-04 7.320002077232e-04 7.320002181485e-04 7.320002079614e-04 7.320002048206e-04 7.320002119884e-04 7.320003494846e-04 7.320004090919e-04 7.320003537017e-04 7.320003250841e-04 7.320003011483e-04 7.320003112970e-04 7.320002729961e-04 7.320002685779e-04 7.320002729299e-04 7.320001201682e-04 7.320001286447e-04 7.320000733938e-04 7.320001040867e-04 7.320000571281e-04 7.320000734941e-04 7.320001091518e-04 7.320000985682e-04 7.320001071243e-04 7.320001754800e-04 7.320001270468e-04 7.320001753394e-04 7.320001543596e-04 7.320001662678e-04 7.320001179479e-04 7.320003068340e-04 7.320003061081e-04 7.320002885585e-04 7.320000771172e-04 7.320000746779e-04 7.320001411283e-04 7.320001274774e-04 7.320001080424e-04 7.320004247108e-04 7.320004276079e-04 7.320004157335e-04 7.320004136506e-04 7.320003880451e-04 7.320004083160e-04 7.320002012888e-04 7.320001853083e-04 7.320001828481e-04 7.320002063471e-04 7.320001996902e-04 7.320001985584e-04 7.320000721212e-04 7.320000282768e-04 7.320000432511e-04 7.320002185771e-04 7.320002449369e-04 7.320001737890e-04 7.320001326152e-04 7.320002940828e-04 7.320003196464e-04 7.320001516476e-04 7.320000841421e-04 7.320002514336e-04 7.320002462127e-04 7.320003958482e-04 7.320004263010e-04 7.320002176312e-04 7.320002317569e-04 7.320001624424e-04 7.320002046973e-04 7.320002025793e-04 7.320002095912e-04 7.320001520378e-04 7.320002732695e-04 7.320000636732e-04 7.320000643594e-04 7.320002908303e-04 7.320003344928e-04 7.320000889211e-04 7.320001832952e-04 7.320001174592e-04 7.320001637511e-04 7.320002015699e-04 7.320004105428e-04 7.320003866804e-04 7.320002978558e-04 7.320001366576e-04 7.320002002264e-04 7.320000577942e-04 7.320001991546e-04 7.320006002363e-04 7.320006308790e-04 7.320002746838e-04 7.320002771667e-04 7.320012789480e-04 7.320010153591e-04 7.320002602877e-04 7.320002339609e-04 7.320001833708e-04 7.320003839221e-04 7.320003551147e-04 7.320001771431e-04 7.320003228504e-04 7.320003451648e-04 7.320005077550e-04 7.320004473092e-04 7.320002384504e-04 7.320005743773e-04 7.320007061136e-04 7.320006874994e-04 7.320009037989e-04 7.320001969357e-04 7.320009447830e-04 7.320001986390e-04 7.320002503267e-04 7.320002054706e-04 7.320010189517e-04 7.320010157163e-04 7.320007911826e-04 7.320007096922e-04 7.320009650625e-04 7.320005788819e-04 7.320004724653e-04 7.320005363242e-04 7.320005330534e-04 7.320010086835e-04 7.320009160715e-04 7.320008121293e-04 7.320003238926e-04 7.320004177172e-04 7.320004081153e-04 7.320003337719e-04 7.320003659071e-04 7.320004805509e-04 7.320003679345e-04 7.320004709927e-04 7.320006083289e-04 7.320004920474e-04 7.320005150989e-04 7.320006049143e-04 7.320005057958e-04 7.320005865211e-04 7.320005076381e-04 7.320005312576e-04 7.320008418588e-04 7.320009291279e-04 7.320001903979e-04 7.320002303060e-04 7.320001847093e-04 7.320001851480e-04 7.320002014844e-04 7.320003562016e-04 7.320002907365e-04 7.320003030342e-04 7.320002038354e-04 7.320001692915e-04 7.320002587654e-04 7.320010539586e-04 7.320013718769e-04 7.320004689995e-04 7.320005609468e-04 7.320007605775e-04 7.320002354071e-04 7.320013917224e-04 7.320011675099e-04 7.320009357140e-04 7.320006948392e-04 7.320008323671e-04 7.320008356566e-04 7.320002458835e-04 7.320003056264e-04 7.320002263020e-04 7.320002810825e-04 7.320003575898e-04 7.320002689684e-04 7.320003627179e-04 7.320003850090e-04 7.320007458620e-04 7.320006277954e-04 7.320006345259e-04 7.320006739506e-04 7.320005395465e-04 7.320007035938e-04 7.320007124232e-04 7.320008356650e-04 7.320005639009e-04 7.320004121543e-04 7.320004656355e-04 7.320003407319e-04 7.320007269566e-04 7.320006021130e-04 7.320006878841e-04 7.320002967613e-04 7.320003465073e-04 7.320004075447e-04 7.320003988808e-04 7.320002866509e-04 7.320008985810e-04 7.320007208734e-04 7.320007132447e-04 7.320008435379e-04 7.320007437613e-04 7.320006410129e-04 7.320007014684e-04 7.320008225112e-04 7.320007808144e-04 7.320005012544e-04 7.320004823780e-04 7.320005650047e-04 7.320003958485e-04 7.320002570625e-04 7.320002511295e-04 7.320002009564e-04 7.320001920780e-04 7.320003863627e-04 7.320003269316e-04 7.320004262213e-04 7.320003820836e-04 7.320003204251e-04 7.320003654487e-04 7.320003366319e-04 7.320004176329e-04 7.320001841021e-04 7.320002419314e-04 7.320004428701e-04 7.320003994736e-04 7.320002833110e-04 7.320002267212e-04 7.320003156526e-04 7.320002854328e-04 7.320005969645e-04 7.320007181496e-04 7.320005871739e-04 7.320006287765e-04 7.320004248412e-04 7.320005016946e-04 7.320005213175e-04 7.320003697570e-04 7.320003349727e-04 7.320003672496e-04 7.320003162377e-04 7.320004006250e-04 7.320006224425e-04 7.320005419595e-04 7.320005415765e-04 7.320002694937e-04 7.320002534107e-04 7.320006077811e-04 7.320006737924e-04 7.320007773862e-04 7.320017496189e-04 7.320002363884e-04 7.320001509897e-04 7.320013959398e-04 7.320003207684e-04 7.320004726058e-04 7.320004505075e-04 7.320001708098e-04 7.320005131494e-04 7.320004736923e-04 7.320002412661e-04 7.320002190134e-04 7.320002538660e-04 7.320002066706e-04 7.320002649788e-04 7.320002034987e-04 7.320007412803e-04 7.320008665181e-04 7.320007440561e-04 7.320003370393e-04 7.320004149814e-04 7.320003821714e-04 7.320003881748e-04 7.320002907025e-04 7.320004190696e-04 7.320005358382e-04 7.320004691030e-04 7.320002878978e-04 7.320002963891e-04 7.320003976405e-04 7.320004881854e-04 7.320004691522e-04 7.320003239187e-04 7.320002975138e-04 7.320002410370e-04 7.320002692411e-04 7.320002422174e-04 7.320008590534e-04 7.320009407909e-04 7.320006562312e-04 7.320006395357e-04 7.320006333683e-04 7.320002630357e-04 7.320002558264e-04 7.320002517767e-04 7.320002387580e-04 7.320001995936e-04 7.320002724450e-04 7.320002960371e-04 7.320002739436e-04 7.320002374349e-04 7.320002736333e-04 7.320003284236e-04 7.320003561881e-04 7.320007370042e-04 7.320006223612e-04 7.320006918970e-04 7.320006316889e-04 7.320006521373e-04 7.320001854675e-04 7.320005311333e-04 7.320004603965e-04 7.320005134021e-04 7.320006352238e-04 7.320009539466e-04 7.320011985785e-04 7.320008946349e-04 7.320004278745e-04 7.320003316325e-04 7.320005262254e-04 7.320005708747e-04 7.320004130520e-04 7.320007079802e-04 7.320012973171e-04 7.320014918203e-04 7.320011728434e-04 7.320006728243e-04 7.320002139834e-04 7.320002153394e-04 7.320002177551e-04 7.320002237215e-04 7.320002364757e-04 7.320009957971e-04 7.320002609556e-04 7.320003174357e-04 7.320002333492e-04 7.320002345620e-04 7.320002246185e-04 7.320002318529e-04 7.320002777113e-04 7.320002009799e-04 7.320002559381e-04 7.320002377198e-04 7.320002421776e-04 7.320002144679e-04 7.320003788302e-04 7.320003725882e-04 7.320005738602e-04 7.320006968452e-04 7.320002588310e-04 7.320003162880e-04 7.320003330191e-04 7.320003622429e-04 7.320002773870e-04 7.320002765884e-04 7.320003702142e-04 7.320006958343e-04 7.320005494577e-04 7.320008256804e-04 7.320007038588e-04 7.320010899030e-04 7.320010198138e-04 7.320008434020e-04 7.320005145367e-04 7.320004648524e-04 7.320005852762e-04 7.320004980357e-04 7.320008085177e-04 7.320009357690e-04 7.320002987856e-04 7.320002774123e-04 7.320003118353e-04 7.320002831021e-04 7.320003004601e-04 7.320009790590e-04 7.320008892252e-04 7.320011433300e-04 7.320010381874e-04 7.320010248740e-04 7.320008604243e-04 7.320009339151e-04 7.320007485554e-04 7.320007449495e-04 7.320005753990e-04 7.320002719357e-04 7.320002168307e-04 7.320001956800e-04 7.320002099179e-04 7.320002109108e-04 7.320002798675e-04 7.320002181409e-04 7.320005562096e-04 7.320004423767e-04 7.320007274992e-04 7.320003058869e-04 7.320003061587e-04 7.320002021497e-04 7.320010326491e-04 7.320004290531e-04 7.320002572694e-04 7.320003444718e-04 7.320015611149e-04 7.320013208244e-04 7.320013280056e-04 7.320001936406e-04 7.320003460496e-04 7.320002315895e-04 7.320001845025e-04 7.320001994775e-04 7.320001996826e-04 7.320001959329e-04 7.320013770231e-04 7.320012029063e-04 7.320016471466e-04 7.320001602899e-04 7.320002182161e-04 7.320002191500e-04 7.320002630608e-04 7.320002603249e-04 7.320001640930e-04 7.320001355742e-04 7.320009197155e-04 7.320009479507e-04 7.320010346309e-04 7.320008206652e-04 7.320002502045e-04 7.320007442306e-04 7.320008372530e-04 7.320003353730e-04 7.320002996551e-04 7.320002430947e-04 7.320008233917e-04 7.320010157443e-04 7.320002607753e-04 7.320002779407e-04 7.320012153723e-04 7.320001900791e-04 7.320002197223e-04 7.320012600660e-04 7.320015275080e-04 7.320008556189e-04 7.320004914461e-04 7.320004234936e-04 7.320009193950e-04 7.320005588233e-04 7.320010262938e-04 7.320002280340e-04 7.320002182068e-04 7.320002214085e-04 7.320002402495e-04 7.320005735131e-04 7.320008625368e-04 7.320002777128e-04 7.320005491599e-04 7.320009956729e-04 7.320009903447e-04 7.320011826966e-04 7.320006243682e-04 7.320005626001e-04 7.320004690639e-04 7.320002772338e-04 7.320010394328e-04 7.320008451900e-04 7.320002593008e-04 7.320003913938e-04 7.320003731374e-04 7.320003022687e-04 7.320002963471e-04 7.320002980514e-04 7.320002363618e-04 7.320005705391e-04 7.320002712682e-04 7.320003120471e-04 7.320003140955e-04 7.320001269990e-04 7.320007478041e-04 7.320010650894e-04 7.320008367125e-04 7.320005821854e-04 7.320005232561e-04 7.320009554050e-04 7.320004653254e-04 7.320003476990e-04 7.320002909056e-04 7.320001893064e-04 7.320005415690e-04 7.320008387360e-04 7.320002542260e-04 7.320002561947e-04 7.320001917438e-04 7.320005405631e-04 7.320004616849e-04 7.320002340229e-04 7.320003245568e-04 7.320006428975e-04 7.320007032215e-04 7.320005978397e-04 7.320012145122e-04 7.320009095054e-04 7.320010942210e-04 7.320003229981e-04 7.320008798909e-04 7.320007158489e-04 7.320008458666e-04 7.320007192607e-04 7.320001874695e-04 7.320004430036e-04 7.320004608989e-04 7.320002305617e-04 7.320002514943e-04 7.320002522727e-04 7.320003442314e-04 7.320007035079e-04 7.320003992325e-04 7.320003375658e-04 7.320013952042e-04 7.320004068667e-04 7.320001660477e-04 7.320006355516e-04 7.320002584396e-04 7.320003705495e-04 7.320001089745e-04 7.320004264543e-04 7.320002338847e-04 7.320002746142e-04 7.320002276600e-04 7.320009411187e-04 7.320011678462e-04 7.320010787718e-04 7.320010232190e-04 7.320002654672e-04 7.320003066951e-04 7.320002519907e-04 7.320003667090e-04 7.320003512570e-04 7.320002777139e-04 7.320012777103e-04 7.320004215423e-04 7.320015508360e-04 7.320007585397e-04 7.320003501820e-04 7.320004562295e-04 7.320005976559e-04 7.320004575739e-04 7.320004797161e-04 7.320002016090e-04 7.320002600324e-04 7.320003585871e-04 7.320002533320e-04 7.320004497906e-04 7.320006332710e-04 7.320010225977e-04 7.320008411884e-04 7.320005855219e-04 7.320002160784e-04 7.320011283661e-04 7.320004453065e-04 7.320008480175e-04 7.320009494190e-04 7.320008425793e-04 7.320008356661e-04 7.320001282757e-04 7.320002531016e-04 7.320008483071e-04 7.320006326782e-04 7.320002052167e-04 7.320005408361e-04 7.320002613457e-04 7.320010899999e-04 7.320011060253e-04 7.320011414300e-04 7.320001071041e-04 7.320002173877e-04 7.320004523448e-04 7.320004995666e-04 7.320003304608e-04 7.320001660284e-04 7.320005443433e-04 7.320009258695e-04 7.320003984391e-04 7.320004779279e-04 7.320008767125e-04 7.320003252835e-04 7.320003322960e-04 7.320001932151e-04 7.320006467878e-04 7.320004163094e-04 7.320003554825e-04 7.320004558957e-04 7.320007067397e-04 7.320010219597e-04 7.320010860338e-04 7.320002436081e-04 7.320003110477e-04 7.320011437875e-04 7.320005479707e-04 7.320001258100e-04 7.319998992433e-04 7.320002151054e-04 7.320003844494e-04 7.320000671693e-04 7.319999914157e-04 7.320000550963e-04 7.320001786836e-04 7.319999069081e-04 7.320003439556e-04 7.320000487138e-04 7.320003300631e-04 7.319998085405e-04 7.319998618518e-04 7.319996581829e-04 7.320001833020e-04 7.320002055883e-04 7.320000452569e-04 7.320002446845e-04 7.319997862524e-04 7.320001283864e-04 7.320000605957e-04 7.319997289119e-04 7.319995991586e-04 7.320002635222e-04 7.320003084523e-04 7.319998077283e-04 7.320002887593e-04 7.320000299867e-04 7.320004225815e-04 7.319999572405e-04 7.320002134980e-04 7.319999827414e-04 7.320002153094e-04 7.320002028814e-04 7.320001798809e-04 7.319996669787e-04 7.320007895726e-04 7.320001473218e-04 7.320006019700e-04 7.320002022562e-04 7.320002447967e-04 7.320001425493e-04 7.320004999625e-04 7.319998544279e-04 7.320002544278e-04 7.320005245026e-04 7.320001287499e-04 7.320000054779e-04 7.320000796640e-04 7.320002320991e-04 7.320004184380e-04 7.320001813533e-04 7.319997704967e-04 7.319997729275e-04 7.320004023381e-04 7.320000496711e-04 7.320003854558e-04 7.320002983364e-04 7.319999750702e-04 7.319996498958e-04 7.320000337338e-04 7.319999499866e-04 7.319997814271e-04 7.319996062634e-04 7.320004007838e-04 7.320003557064e-04 7.320000165238e-04 7.320002526715e-04 7.320000225365e-04 7.320002821589e-04 7.320007400730e-04 7.320002414247e-04 7.319996652770e-04 7.320000035106e-04 7.319998987836e-04 7.320001300696e-04 7.320002555461e-04 7.319999014879e-04 7.320004851588e-04 7.320001333646e-04 7.320002530315e-04 7.320007591334e-04 7.319998096658e-04 7.320001228516e-04 7.320006093607e-04 7.319998072215e-04 7.319997822716e-04 7.319999088558e-04 7.320001234708e-04 7.320001755352e-04 7.320001140246e-04 7.320003764361e-04 7.320007087462e-04 7.319998507489e-04 7.320006938430e-04 7.320000078954e-04 7.319997073547e-04 7.320005134622e-04 7.320002508543e-04 7.319996495110e-04 7.320003816263e-04 7.319995175124e-04 7.320004519719e-04 7.320002308106e-04 7.320000106010e-04 7.320000428552e-04 7.320002417984e-04 7.319998392656e-04 7.320000776160e-04 7.320003340706e-04 7.319998493169e-04 7.320001177834e-04 7.319997306452e-04 7.320001515154e-04 7.319994765882e-04 7.319996269338e-04 7.320002935892e-04 7.320002301439e-04 7.319996881426e-04 7.320001582448e-04 7.319997772439e-04 7.320000505001e-04 7.319998709823e-04 7.320004352200e-04 7.320001921011e-04 7.319996242646e-04 7.319997501475e-04 7.320002910614e-04 7.320005534003e-04 7.319997550554e-04 7.319996932912e-04 7.319998455024e-04 7.319997445345e-04 7.320002794826e-04 7.319999302228e-04 7.320002006134e-04 7.319999205172e-04 7.320003165976e-04 7.320004102695e-04 7.319999135471e-04 7.320003466709e-04 7.320004587518e-04 7.319999866092e-04 7.320004105092e-04 7.319998813452e-04 7.319996776345e-04 7.319999968026e-04 7.319996480182e-04 7.319998463082e-04 7.319999037005e-04 7.320002380383e-04 7.319999551677e-04 7.319996762153e-04 7.320005410175e-04 7.320002415608e-04 7.319998796908e-04 7.319999997185e-04 7.320000752361e-04 7.320003502770e-04 7.320000551892e-04 7.319997140604e-04 7.320002328480e-04 7.319999149979e-04 7.319996582549e-04 7.320003297339e-04 7.319998785932e-04 7.319995733240e-04 7.320006296793e-04 7.319998527309e-04 7.320001015283e-04 7.319998257034e-04 7.319995803168e-04 7.320002062157e-04 7.320002409558e-04 7.319999043833e-04 7.320010241975e-04 7.320006809833e-04 7.319997511291e-04 7.319999606427e-04 7.320003384693e-04 7.320003258760e-04 7.320003892928e-04 7.320000464611e-04 7.320008008494e-04 7.320003037232e-04 7.319998926737e-04 7.320001147372e-04 7.319998908033e-04 7.319999394027e-04 7.319999846079e-04 7.319998804320e-04 7.319996736951e-04 7.319998188350e-04 7.320005848827e-04 7.320001715180e-04 7.320005556899e-04 7.319994926444e-04 7.319996244847e-04 7.320003068838e-04 7.319994205918e-04 7.319999769082e-04 7.320001677598e-04 7.319995741411e-04 7.320002661372e-04 7.320004100248e-04 7.320001683382e-04 7.320000695533e-04 7.319996705104e-04 7.320005403961e-04 7.320002737312e-04 7.320005722188e-04 7.319995860145e-04 7.319995197453e-04 7.320005833497e-04 7.320002639398e-04 7.319999132562e-04 7.320006798508e-04 7.319995228234e-04 7.319997058458e-04 7.320004681182e-04 7.319998143439e-04 7.320002173229e-04 7.320000550575e-04 7.320000008094e-04 7.319997190811e-04 7.320004646801e-04 7.320000122385e-04 7.319998500990e-04 7.320001912648e-04 7.319999020415e-04 7.320003066370e-04 7.319997192977e-04 7.319995992673e-04 7.320005447038e-04 7.319996801629e-04 7.320013473240e-04 7.320011281035e-04 7.320002155360e-04 7.319998093922e-04 7.319997490373e-04 7.319996354950e-04 7.319994729041e-04 7.320001855542e-04 7.320003455398e-04 7.320002095870e-04 7.319999385486e-04 7.319996152981e-04 7.320001555622e-04 7.319997552183e-04 7.320001760774e-04 
        </DataArray>
        <DataArray type="Float64" Name="STRAIN_ZZ" format="ascii">
          -2.440000172062e-03 -2.440000331569e-03 -2.440000283961e-03 -2.439999484912e-03 -2.439999349155e-03 -2.439999430184e-03 -2.439999594326e-03 -2.439999539824e-03 -2.439999438616e-03 -2.440000229416e-03 -2.440000240833e-03 -2.440000063946e-03 -2.439999876473e-03 -2.439999762738e-03 -2.439999792141e-03 -2.439999699280e-03 -2.439999702738e-03 -2.439999717252e-03 -2.439999734374e-03 -2.439999726216e-03 -2.439999737219e-03 -2.439999762377e-03 -2.439999822556e-03 -2.439999646769e-03 -2.439999591531e-03 -2.439999629134e-03 -2.439999746946e-03 -2.439999665912e-03 -2.439999711662e-03 -2.440000231956e-03 -2.440000142258e-03 -2.440000074774e-03 -2.439999996287e-03 -2.439999862222e-03 -2.439999966286e-03 -2.439999500655e-03 -2.439999504068e-03 -2.439999487446e-03 -2.439999883286e-03 -2.439999926653e-03 -2.439999707099e-03 -2.439999742753e-03 -2.439999719040e-03 -2.439999699260e-03 -2.439999658322e-03 -2.439999652011e-03 -2.439999592667e-03 -2.439999787630e-03 -2.439999753507e-03 -2.439999782321e-03 -2.439999770107e-03 -2.439999718362e-03 -2.439999856137e-03 -2.439999824609e-03 -2.439999666787e-03 -2.439999486521e-03 -2.439999552378e-03 -2.440000131597e-03 -2.440000040300e-03 -2.439999962457e-03 -2.439999949930e-03 -2.439999607929e-03 -2.439999570715e-03 -2.440000043528e-03 -2.440000032835e-03 -2.439999549148e-03 -2.439999685971e-03 -2.439999670177e-03 -2.439999674581e-03 -2.439999941324e-03 -2.440000175981e-03 -2.440000048972e-03 -2.439999944695e-03 -2.439999832912e-03 -2.439999789849e-03 -2.439999784427e-03 -2.439999623478e-03 -2.439999680801e-03 -2.439999844795e-03 -2.439999917636e-03 -2.439999751288e-03 -2.439999748209e-03 -2.439999821095e-03 -2.439999587479e-03 -2.439999603803e-03 -2.439999917267e-03 -2.439999885769e-03 -2.440000124039e-03 -2.440000209064e-03 -2.439999725889e-03 -2.439999625621e-03 -2.439999899583e-03 -2.439999629690e-03 -2.439999521673e-03 -2.439999685911e-03 -2.439999550809e-03 -2.439999837779e-03 -2.439999794145e-03 -2.439999705605e-03 -2.439999645014e-03 -2.439999826807e-03 -2.439999731410e-03 -2.439999661670e-03 -2.439999719990e-03 -2.439999659464e-03 -2.439999609074e-03 -2.439999689145e-03 -2.440000101699e-03 -2.439999776090e-03 -2.440000369319e-03 -2.440000359314e-03 -2.440000350935e-03 -2.439999817012e-03 -2.439999832671e-03 -2.439999978214e-03 -2.439999987394e-03 -2.439999892572e-03 -2.439999845781e-03 -2.440000307304e-03 -2.440000285948e-03 -2.440000256824e-03 -2.440000043064e-03 -2.439999990400e-03 -2.440000027365e-03 -2.440000141761e-03 -2.440000137085e-03 -2.440000122289e-03 -2.440000116857e-03 -2.440000129623e-03 -2.440000193879e-03 -2.440000203609e-03 -2.440000251555e-03 -2.440000147058e-03 -2.440000165515e-03 -2.440000159622e-03 -2.440000054094e-03 -2.440000072889e-03 -2.440000079906e-03 -2.440000324869e-03 -2.440000346844e-03 -2.440000383998e-03 -2.440000149598e-03 -2.440000110049e-03 -2.440000176049e-03 -2.439999975628e-03 -2.439999827658e-03 -2.440000092662e-03 -2.440000145366e-03 -2.440000206606e-03 -2.440000164946e-03 -2.440000180970e-03 -2.440000190165e-03 -2.440000166517e-03 -2.440000153508e-03 -2.440000160627e-03 -2.440000161016e-03 -2.440000100168e-03 -2.440000071022e-03 -2.440000081890e-03 -2.440000057216e-03 -2.440000103582e-03 -2.440000182065e-03 -2.440000129221e-03 -2.440000109969e-03 -2.439999918008e-03 -2.440000037893e-03 -2.440000305058e-03 -2.440000302593e-03 -2.440000246723e-03 -2.440000296627e-03 -2.440000077284e-03 -2.440000115438e-03 -2.440000348005e-03 -2.440000348874e-03 -2.440000085164e-03 -2.440000161055e-03 -2.439999936909e-03 -2.439999986836e-03 -2.440000126034e-03 -2.440000232577e-03 -2.440000171723e-03 -2.440000116941e-03 -2.440000082300e-03 -2.440000134497e-03 -2.440000170283e-03 -2.440000151831e-03 -2.440000179363e-03 -2.440000260186e-03 -2.440000298780e-03 -2.440000002813e-03 -2.440000032544e-03 -2.440000108083e-03 -2.440000098315e-03 -2.440000131691e-03 -2.440000237169e-03 -2.440000248348e-03 -2.440000227962e-03 -2.440000266028e-03 -2.440000153576e-03 -2.440000162821e-03 -2.440000298937e-03 -2.440000156137e-03 -2.440000159256e-03 -2.440000163195e-03 -2.440000147128e-03 -2.440000059729e-03 -2.440000081525e-03 -2.440000044104e-03 -2.440000129262e-03 -2.440000210441e-03 -2.440000183063e-03 -2.440000154965e-03 -2.440000159834e-03 -2.440000160084e-03 -2.440000154275e-03 -2.440000158831e-03 -2.440000202165e-03 -2.440000042842e-03 -2.440000256517e-03 -2.440000347668e-03 -2.440000144025e-03 -2.439999634536e-03 -2.440000120309e-03 -2.440000156927e-03 -2.440000172210e-03 -2.439999984241e-03 -2.440000013616e-03 -2.440000009577e-03 -2.440000667273e-03 -2.440000663698e-03 -2.440000745627e-03 -2.439999713916e-03 -2.439999653385e-03 -2.439999753644e-03 -2.439999804038e-03 -2.439999797494e-03 -2.439999880193e-03 -2.439999791853e-03 -2.439999813486e-03 -2.439999706639e-03 -2.440000124242e-03 -2.440000235634e-03 -2.440000226753e-03 -2.439999898288e-03 -2.439999964701e-03 -2.439999860858e-03 -2.439999871107e-03 -2.439999787636e-03 -2.439999595666e-03 -2.439999805217e-03 -2.439999771545e-03 -2.439999824486e-03 -2.440000761649e-03 -2.440000784535e-03 -2.440000744631e-03 -2.440000380060e-03 -2.440000333113e-03 -2.440000497177e-03 -2.440000146996e-03 -2.440000197685e-03 -2.440000200666e-03 -2.439999815082e-03 -2.439999695784e-03 -2.439999795049e-03 -2.439999451901e-03 -2.439999424441e-03 -2.439999424418e-03 -2.439999989682e-03 -2.439999941325e-03 -2.440000071645e-03 -2.439999925968e-03 -2.439999944348e-03 -2.440000001060e-03 -2.439999718059e-03 -2.439999630419e-03 -2.439999754739e-03 -2.440000091091e-03 -2.440000076936e-03 -2.440000546763e-03 -2.440000573288e-03 -2.440000465190e-03 -2.440000131447e-03 -2.440000197464e-03 -2.440000281707e-03 -2.439999884492e-03 -2.439999901671e-03 -2.439999860952e-03 -2.439999797845e-03 -2.440000202624e-03 -2.440000085262e-03 -2.440000101484e-03 -2.440000020402e-03 -2.440000463364e-03 -2.440000503949e-03 -2.440000568490e-03 -2.440000429486e-03 -2.440000357309e-03 -2.440000539556e-03 -2.440000516458e-03 -2.439999777365e-03 -2.439999833981e-03 -2.439999750268e-03 -2.439999826442e-03 -2.439999815099e-03 -2.439999801931e-03 -2.439999795512e-03 -2.439999869040e-03 -2.439999877245e-03 -2.439999802652e-03 -2.439999808124e-03 -2.440000090036e-03 -2.440000062529e-03 -2.440000028393e-03 -2.440000004148e-03 -2.439999820186e-03 -2.439999803747e-03 -2.439999865578e-03 -2.439999878011e-03 -2.440000051612e-03 -2.440000123341e-03 -2.440000173775e-03 -2.439999769708e-03 -2.439999770321e-03 -2.439999760148e-03 -2.439999593557e-03 -2.439999617048e-03 -2.439999540797e-03 -2.439999797402e-03 -2.439999851003e-03 -2.439999739118e-03 -2.440000342756e-03 -2.440000166334e-03 -2.439999693885e-03 -2.439999972196e-03 -2.439999666865e-03 -2.439999399670e-03 -2.439999486467e-03 -2.439999736785e-03 -2.439999897799e-03 -2.439999990328e-03 -2.440000064512e-03 -2.440000159778e-03 -2.440000113428e-03 -2.440000262758e-03 -2.440000162926e-03 -2.439999806597e-03 -2.439999717082e-03 -2.440000173439e-03 -2.440000216141e-03 -2.439999905884e-03 -2.439999929551e-03 -2.440000595078e-03 -2.440000625096e-03 -2.440000638600e-03 -2.440000620240e-03 -2.440000560760e-03 -2.439999967435e-03 -2.439999930714e-03 -2.439999887478e-03 -2.440000726499e-03 -2.440000627631e-03 -2.440000616998e-03 -2.440000689238e-03 -2.440000524771e-03 -2.440000102662e-03 -2.440000059356e-03 -2.440000160376e-03 -2.439999979269e-03 -2.440000115305e-03 -2.440000099042e-03 -2.440000040045e-03 -2.439999877850e-03 -2.439999971291e-03 -2.439999935346e-03 -2.439999930547e-03 -2.439999895423e-03 -2.439999798531e-03 -2.439999863522e-03 -2.439999842758e-03 -2.439999951600e-03 -2.439999994000e-03 -2.440000041219e-03 -2.440000113814e-03 -2.440000115325e-03 -2.439999998863e-03 -2.440000148038e-03 -2.440000199512e-03 -2.440000122412e-03 -2.440000102856e-03 -2.439999881953e-03 -2.439999918739e-03 -2.439999994306e-03 -2.440000325844e-03 -2.439999649925e-03 -2.439999568286e-03 -2.439999750170e-03 -2.439999812193e-03 -2.439999773850e-03 -2.439999662745e-03 -2.439999730294e-03 -2.439999686516e-03 -2.439999577827e-03 -2.439999654525e-03 -2.439999733464e-03 -2.439999650209e-03 -2.439999720468e-03 -2.439999620645e-03 -2.439999902409e-03 -2.439999814533e-03 -2.439999835829e-03 -2.439999812315e-03 -2.439999856447e-03 -2.439999835851e-03 -2.440000145197e-03 -2.440000135548e-03 -2.440000118538e-03 -2.440000190786e-03 -2.439999820836e-03 -2.439999842534e-03 -2.439999798753e-03 -2.440000335354e-03 -2.440000317831e-03 -2.440000235628e-03 -2.439999861926e-03 -2.439999827106e-03 -2.440000313071e-03 -2.440000243270e-03 -2.439999748140e-03 -2.439999747331e-03 -2.439999702985e-03 -2.439999773135e-03 -2.440000117839e-03 -2.440000077328e-03 -2.440000115038e-03 -2.440000124616e-03 -2.439999996302e-03 -2.439999939818e-03 -2.440000056722e-03 -2.440000063204e-03 -2.439999570236e-03 -2.439999703404e-03 -2.439999656035e-03 -2.439999459740e-03 -2.439999515455e-03 -2.439999815146e-03 -2.439999819709e-03 -2.439999844979e-03 -2.439999863504e-03 -2.439999768767e-03 -2.439999786901e-03 -2.439999785372e-03 -2.440000157701e-03 -2.440000147659e-03 -2.440000036187e-03 -2.439999959960e-03 -2.439999961110e-03 -2.439999935046e-03 -2.439999904461e-03 -2.439999914271e-03 -2.440000023180e-03 -2.439999940717e-03 -2.439999680359e-03 -2.439999714972e-03 -2.439999640604e-03 -2.439999866354e-03 -2.439999884409e-03 -2.439999878081e-03 -2.440000175262e-03 -2.440000249686e-03 -2.439999599264e-03 -2.439999760543e-03 -2.440000367331e-03 -2.440000330880e-03 -2.440000139947e-03 -2.440000123943e-03 -2.439999961394e-03 -2.439999761653e-03 -2.439999707824e-03 -2.439999558147e-03 -2.439999518231e-03 -2.439999552600e-03 -2.440000167359e-03 -2.440000199075e-03 -2.440000176967e-03 -2.439999966092e-03 -2.439999867755e-03 -2.439999984013e-03 -2.439999865432e-03 -2.439999857712e-03 -2.440000053979e-03 -2.439999919724e-03 -2.439999911716e-03 -2.439999935032e-03 -2.439999880910e-03 -2.439999856335e-03 -2.439999813121e-03 -2.440000263184e-03 -2.440000046087e-03 -2.439999981321e-03 -2.440000073579e-03 -2.440000150607e-03 -2.440000076666e-03 -2.439999994345e-03 -2.440000584369e-03 -2.440000133611e-03 -2.440000085122e-03 -2.439999597343e-03 -2.439999704617e-03 -2.440000429405e-03 -2.440000397295e-03 -2.440000771741e-03 -2.440000813507e-03 -2.439999969122e-03 -2.440000071055e-03 -2.440000092344e-03 -2.439999958386e-03 -2.440000291841e-03 -2.440000354425e-03 -2.440000284877e-03 -2.440000134134e-03 -2.440000130150e-03 -2.440000163208e-03 -2.439999740238e-03 -2.439999699588e-03 -2.439999782361e-03 -2.440000072864e-03 -2.439999920817e-03 -2.439999928749e-03 -2.440000037653e-03 -2.439999987827e-03 -2.440000114805e-03 -2.439999766694e-03 -2.439999971821e-03 -2.439999812089e-03 -2.439999828231e-03 -2.439999836637e-03 -2.439999826552e-03 -2.440000243724e-03 -2.440000272940e-03 -2.439999667383e-03 -2.439999618908e-03 -2.439999983040e-03 -2.440000540676e-03 -2.440000605620e-03 -2.440000266942e-03 -2.440000209607e-03 -2.439999899093e-03 -2.439999886796e-03 -2.439999884951e-03 -2.439999899003e-03 -2.439999773208e-03 -2.439999801661e-03 -2.439999761147e-03 -2.439999856786e-03 -2.439999906619e-03 -2.439999750472e-03 -2.439999676408e-03 -2.440000057345e-03 -2.440000095192e-03 -2.440000275720e-03 -2.440000326757e-03 -2.440000243928e-03 -2.439999820943e-03 -2.439999819683e-03 -2.439999831363e-03 -2.439999854407e-03 -2.439999829210e-03 -2.439999852411e-03 -2.439999700386e-03 -2.439999605379e-03 -2.439999779924e-03 -2.440000146258e-03 -2.440000098339e-03 -2.440000176775e-03 -2.439999738696e-03 -2.439999701435e-03 -2.439999724981e-03 -2.440000029035e-03 -2.439999928056e-03 -2.439999954220e-03 -2.440000054080e-03 -2.440000050721e-03 -2.439999876262e-03 -2.439999894950e-03 -2.439999959014e-03 -2.439999852925e-03 -2.439999841003e-03 -2.440000111567e-03 -2.439999945810e-03 -2.440000060622e-03 -2.439999969011e-03 -2.439999901562e-03 -2.440000614282e-03 -2.440000550229e-03 -2.439999880912e-03 -2.439999848132e-03 -2.439999896480e-03 -2.439999774190e-03 -2.439999732454e-03 -2.439999747305e-03 -2.439999800303e-03 -2.439999853018e-03 -2.440000555328e-03 -2.440000430064e-03 -2.440000405018e-03 -2.440000130367e-03 -2.440000146553e-03 -2.439999782257e-03 -2.439999814951e-03 -2.439999433967e-03 -2.439999372887e-03 -2.439999668987e-03 -2.440000129588e-03 -2.439999769486e-03 -2.439999778135e-03 -2.439999729684e-03 -2.439999988460e-03 -2.439999914489e-03 -2.439999945646e-03 -2.440000076392e-03 -2.439999983057e-03 -2.440000070386e-03 -2.440000237991e-03 -2.440000185080e-03 -2.440000250668e-03 -2.439999806455e-03 -2.439999729888e-03 -2.440000137969e-03 -2.440000107939e-03 -2.440000124652e-03 -2.440000063358e-03 -2.440000334401e-03 -2.440000290322e-03 -2.440000117214e-03 -2.440000090839e-03 -2.439999906068e-03 -2.439999849873e-03 -2.440000713182e-03 -2.439999938055e-03 -2.440000016003e-03 -2.439999852025e-03 -2.439999903801e-03 -2.439999804558e-03 -2.439999821168e-03 -2.439999807223e-03 -2.439999827538e-03 -2.439999900427e-03 -2.439999970887e-03 -2.439999828856e-03 -2.439999812242e-03 -2.439999903979e-03 -2.439999760566e-03 -2.439999846542e-03 -2.440000222691e-03 -2.440000220796e-03 -2.440000003062e-03 -2.440000024885e-03 -2.439999582956e-03 -2.439999530228e-03 -2.439999869605e-03 -2.439999787933e-03 -2.439999762057e-03 -2.439999760286e-03 -2.440000026464e-03 -2.439999967546e-03 -2.440000486327e-03 -2.440000017029e-03 -2.440000227407e-03 -2.440000100970e-03 -2.439999863500e-03 -2.439999583069e-03 -2.439999858224e-03 -2.439999686729e-03 -2.439999794833e-03 -2.440000430964e-03 -2.440000263020e-03 -2.440000214820e-03 -2.439999810167e-03 -2.439999888096e-03 -2.439999883758e-03 -2.440000144533e-03 -2.440000212818e-03 -2.440000183574e-03 -2.440000026476e-03 -2.440000116657e-03 -2.439999925440e-03 -2.439999586830e-03 -2.440000138964e-03 -2.439999851145e-03 -2.439999825546e-03 -2.440000254842e-03 -2.440000247453e-03 -2.439999852922e-03 -2.439999730259e-03 -2.440000064929e-03 -2.440000638222e-03 -2.440000375808e-03 -2.440000049230e-03 -2.440000359799e-03 -2.439999918962e-03 -2.440000032741e-03 -2.439999998000e-03 -2.440000314417e-03 -2.440000373304e-03 -2.440000590204e-03 -2.440000604468e-03 -2.440000071329e-03 -2.439999953731e-03 -2.439999794173e-03 -2.439999853026e-03 -2.439999701919e-03 -2.440000191126e-03 -2.440000328367e-03 -2.440000764174e-03 -2.440000768079e-03 -2.439999884985e-03 -2.439999895211e-03 -2.439999813390e-03 -2.440000005820e-03 -2.440000146468e-03 -2.440000134890e-03 -2.439999908672e-03 -2.439999759576e-03 -2.439999839200e-03 -2.440000153087e-03 -2.440000453990e-03 -2.439999808598e-03 -2.439999905153e-03 -2.440000105646e-03 -2.439999788492e-03 -2.439999843669e-03 -2.439999708684e-03 -2.440000280814e-03 -2.440000100164e-03 -2.439999992698e-03 -2.440000331589e-03 -2.440000393776e-03 -2.439999833201e-03 -2.440000052289e-03 -2.440000307911e-03 -2.440000123976e-03 -2.439999709844e-03 -2.440000698022e-03 -2.439999497380e-03 -2.439999442630e-03 -2.440000145577e-03 -2.440000119941e-03 -2.440000058082e-03 -2.440000096137e-03 -2.440000752468e-03 -2.439999867528e-03 -2.439999895676e-03 -2.440000108434e-03 -2.440000124788e-03 -2.439999877431e-03 -2.440000115650e-03 -2.439999856478e-03 -2.439999935266e-03 -2.440000093815e-03 -2.440000098047e-03 -2.440000217290e-03 -2.440000278825e-03 -2.439999784587e-03 -2.440000001448e-03 -2.440000025760e-03 -2.440000074892e-03 -2.440000372794e-03 -2.440000160175e-03 -2.440000078961e-03 -2.439999655468e-03 -2.440000200800e-03 -2.439999955955e-03 -2.439999777633e-03 -2.440000604864e-03 -2.440000072993e-03 -2.439999762897e-03 -2.439999817670e-03 -2.439999783481e-03 -2.439999803183e-03 -2.439999857755e-03 -2.439999808187e-03 -2.440000222586e-03 -2.439999905856e-03 -2.440000168276e-03 -2.439999965293e-03 -2.440000668048e-03 -2.440000342839e-03 -2.440000449049e-03 -2.439999996560e-03 -2.439999823320e-03 -2.439999729198e-03 -2.440000168428e-03 -2.439999861729e-03 -2.439999874738e-03 -2.440000468943e-03 -2.439999409303e-03 -2.440000105784e-03 -2.439999855529e-03 -2.439999586658e-03 -2.439999779958e-03 -2.440000056749e-03 -2.440000476953e-03 -2.439999928054e-03 -2.440000115309e-03 -2.440000412062e-03 -2.440000213058e-03 -2.439999806599e-03 -2.439999532754e-03 -2.439999848899e-03 -2.440000066387e-03 -2.439999904227e-03 -2.440000534578e-03 -2.440000560480e-03 -2.440000021267e-03 -2.439999662536e-03 -2.439999876495e-03 -2.440000101610e-03 -2.439999896164e-03 -2.439999727627e-03 -2.439999601216e-03 -2.439999778202e-03 -2.440000007487e-03 -2.439999774931e-03 -2.439999587950e-03 -2.439999817477e-03 -2.440000207741e-03 -2.439999788045e-03 -2.440000240234e-03 -2.439999715136e-03 -2.440000251418e-03 -2.440000311438e-03 -2.440000027063e-03 -2.440000018298e-03 -2.440000039911e-03 -2.440000070580e-03 -2.440000049555e-03 -2.440000073870e-03 -2.440000183776e-03 -2.440000117466e-03 -2.440000180940e-03 -2.440000302231e-03 -2.440000269620e-03 -2.440000294581e-03 -2.440000210063e-03 -2.440000201760e-03 -2.440000235318e-03 -2.439999956527e-03 -2.439999973950e-03 -2.439999937154e-03 -2.439999859168e-03 -2.439999888466e-03 -2.439999839101e-03 -2.439999738240e-03 -2.439999757065e-03 -2.439999810649e-03 -2.439999845648e-03 -2.439999832162e-03 -2.439999887017e-03 -2.440000098098e-03 -2.440000026548e-03 -2.440000109026e-03 -2.440000111129e-03 -2.440000153121e-03 -2.440000149593e-03 -2.439999608080e-03 -2.439999682843e-03 -2.439999598174e-03 -2.440000181314e-03 -2.440000152826e-03 -2.440000097139e-03 -2.440000140883e-03 -2.440000143010e-03 -2.440000110070e-03 -2.439999666166e-03 -2.439999651642e-03 -2.439999731009e-03 -2.439999835012e-03 -2.439999921221e-03 -2.439999800907e-03 -2.439999950590e-03 -2.439999925002e-03 -2.439999971659e-03 -2.440000209083e-03 -2.440000170484e-03 -2.440000181747e-03 -2.440000176618e-03 -2.440000173054e-03 -2.440000202065e-03 -2.440000035861e-03 -2.440000077344e-03 -2.440000006077e-03 -2.439999528797e-03 -2.439999587800e-03 -2.439999600016e-03 -2.439999801219e-03 -2.439999781282e-03 -2.439999839223e-03 -2.440000212326e-03 -2.440000189927e-03 -2.440000336451e-03 -2.440000233260e-03 -2.440000123165e-03 -2.440000174004e-03 -2.439999925901e-03 -2.439999947326e-03 -2.439999865438e-03 -2.439999878027e-03 -2.439999843906e-03 -2.439999794801e-03 -2.440000036554e-03 -2.440000258076e-03 -2.440000122739e-03 -2.440000003547e-03 -2.440000131897e-03 -2.440000172205e-03 -2.439999774174e-03 -2.439999577271e-03 -2.439999904031e-03 -2.439999719914e-03 -2.439999529835e-03 -2.439999960010e-03 -2.439999729230e-03 -2.440000024287e-03 -2.440000119776e-03 -2.440000177520e-03 -2.440000210340e-03 -2.440000015567e-03 -2.440000163917e-03 -2.439999748429e-03 -2.439999924179e-03 -2.440000250589e-03 -2.440000163228e-03 -2.440000187298e-03 -2.440000166776e-03 -2.440000136166e-03 -2.440000037610e-03 -2.440000045937e-03 -2.440000015757e-03 -2.440000090970e-03 -2.440000091809e-03 -2.440000088780e-03 -2.440000145599e-03 -2.440000118089e-03 -2.440000110511e-03 -2.440000270343e-03 -2.440000215563e-03 -2.439999977440e-03 -2.439999986068e-03 -2.439999945739e-03 -2.440000078747e-03 -2.440000041608e-03 -2.440000073130e-03 -2.439999728859e-03 -2.439999808557e-03 -2.439999781176e-03 -2.439999905687e-03 -2.439999827067e-03 -2.439999893355e-03 -2.439999824765e-03 -2.439999845661e-03 -2.439999831976e-03 -2.439999822545e-03 -2.439999833949e-03 -2.439999825073e-03 -2.440000036010e-03 -2.439999926424e-03 -2.440000013325e-03 -2.439999826260e-03 -2.439999848526e-03 -2.439999822687e-03 -2.439999720190e-03 -2.439999774449e-03 -2.439999792949e-03 -2.439999902188e-03 -2.439999911590e-03 -2.439999873247e-03 -2.439999864535e-03 -2.439999848284e-03 -2.439999905999e-03 -2.440000032630e-03 -2.440000040261e-03 -2.439999983852e-03 -2.440000194661e-03 -2.440000208150e-03 -2.440000261785e-03 -2.440000111681e-03 -2.440000068799e-03 -2.440000144190e-03 -2.439999927579e-03 -2.439999948101e-03 -2.439999946754e-03 -2.440000160429e-03 -2.440000197380e-03 -2.440000124645e-03 -2.440000185080e-03 -2.440000222217e-03 -2.440000198455e-03 -2.439999673404e-03 -2.439999746767e-03 -2.439999774575e-03 -2.440000213128e-03 -2.440000179891e-03 -2.440000201331e-03 -2.440000237126e-03 -2.439999793997e-03 -2.439999812991e-03 -2.440000170442e-03 -2.439999924493e-03 -2.439999939232e-03 -2.440000122987e-03 -2.440000059060e-03 -2.440000011681e-03 -2.440000167301e-03 -2.439999932674e-03 -2.439999856192e-03 -2.440000059339e-03 -2.439999986278e-03 -2.439999870634e-03 -2.440000166177e-03 -2.439999767447e-03 -2.440000102364e-03 -2.439999933749e-03 -2.439999785782e-03 -2.439999681219e-03 -2.439999677487e-03 -2.440000190886e-03 -2.439999869355e-03 -2.440000236954e-03 -2.440000028843e-03 -2.439999804978e-03 -2.440000202068e-03 -2.440000298852e-03 -2.440000088066e-03 -2.440000068547e-03 -2.440000067015e-03 -2.440000067274e-03 -2.440000131024e-03 -2.440000085718e-03 -2.440000069405e-03 -2.440000087385e-03 -2.440000065384e-03 -2.440000060667e-03 -2.440000191427e-03 -2.440000176180e-03 -2.440000119216e-03 -2.439999994623e-03 -2.440000042185e-03 -2.439999991691e-03 -2.440000081701e-03 -2.440000053722e-03 -2.440000048365e-03 -2.439999851363e-03 -2.439999843113e-03 -2.439999828619e-03 -2.439999851133e-03 -2.439999881648e-03 -2.439999881388e-03 -2.439999843447e-03 -2.439999913974e-03 -2.439999869634e-03 -2.439999982829e-03 -2.440000044306e-03 -2.439999966507e-03 -2.440000147577e-03 -2.440000160130e-03 -2.440000092748e-03 -2.440000103487e-03 -2.440000073942e-03 -2.440000151748e-03 -2.440000001369e-03 -2.439999880625e-03 -2.439999975967e-03 -2.439999867365e-03 -2.439999834550e-03 -2.439999832083e-03 -2.439999931680e-03 -2.439999941229e-03 -2.439999924325e-03 -2.439999839600e-03 -2.439999916919e-03 -2.439999901390e-03 -2.439999831660e-03 -2.439999880790e-03 -2.439999883106e-03 -2.439999920243e-03 -2.439999859137e-03 -2.439999922413e-03 -2.439999865635e-03 -2.439999891837e-03 -2.439999889907e-03 -2.439999932630e-03 -2.439999945990e-03 -2.439999927281e-03 -2.440000263191e-03 -2.440000292999e-03 -2.440000240893e-03 -2.440000261170e-03 -2.440000263227e-03 -2.440000279889e-03 -2.440000226945e-03 -2.440000223382e-03 -2.439999827110e-03 -2.439999840682e-03 -2.439999900464e-03 -2.439999888227e-03 -2.439999857272e-03 -2.439999883592e-03 -2.439999966141e-03 -2.440000001300e-03 -2.439999898153e-03 -2.439999892312e-03 -2.440000064104e-03 -2.440000047124e-03 -2.440000138140e-03 -2.440000083288e-03 -2.440000063970e-03 -2.440000110709e-03 -2.439999961322e-03 -2.440000061621e-03 -2.439999911274e-03 -2.439999794006e-03 -2.439999960639e-03 -2.439999846728e-03 -2.439999870603e-03 -2.439999853462e-03 -2.440000277131e-03 -2.440000195443e-03 -2.439999958655e-03 -2.440000184100e-03 -2.439999864381e-03 -2.440000052296e-03 -2.439999883441e-03 -2.439999825696e-03 -2.440000225585e-03 -2.439999931481e-03 -2.440000087130e-03 -2.440000058027e-03 -2.440000045182e-03 -2.440000044802e-03 -2.440000007896e-03 -2.439999997832e-03 -2.440000031650e-03 -2.440000031655e-03 -2.440000020302e-03 -2.439999999743e-03 -2.440000019288e-03 -2.439999976673e-03 -2.439999984595e-03 -2.440000071653e-03 -2.440000021031e-03 -2.440000048620e-03 -2.439999894971e-03 -2.439999813766e-03 -2.439999842588e-03 -2.439999817103e-03 -2.439999804639e-03 -2.439999804945e-03 -2.439999842801e-03 -2.439999845804e-03 -2.439999841910e-03 -2.439999848974e-03 -2.439999852097e-03 -2.439999882856e-03 -2.439999934537e-03 -2.439999944203e-03 -2.439999974982e-03 -2.440000000307e-03 -2.440000004062e-03 -2.440000016486e-03 -2.440000253801e-03 -2.440000280039e-03 -2.440000239933e-03 -2.440000132488e-03 -2.440000200449e-03 -2.440000077738e-03 -2.439999948873e-03 -2.439999973429e-03 -2.439999993598e-03 -2.439999926544e-03 -2.440000001402e-03 -2.439999991658e-03 -2.439999889531e-03 -2.439999917196e-03 -2.439999901767e-03 -2.439999939536e-03 -2.439999939075e-03 -2.439999971428e-03 -2.440000111237e-03 -2.440000080269e-03 -2.440000148644e-03 -2.440000251273e-03 -2.440000229000e-03 -2.440000261357e-03 -2.439999953976e-03 -2.439999981449e-03 -2.439999942823e-03 -2.439999979301e-03 -2.440000006322e-03 -2.439999998003e-03 -2.439999919733e-03 -2.439999958858e-03 -2.439999931902e-03 -2.440000062933e-03 -2.440000052219e-03 -2.440000115855e-03 -2.440000266002e-03 -2.440000284952e-03 -2.439999906689e-03 -2.439999941745e-03 -2.439999949855e-03 -2.439999990161e-03 -2.439999929716e-03 -2.439999901202e-03 -2.439999972132e-03 -2.440000034569e-03 -2.440000046276e-03 -2.440000012181e-03 -2.439999963529e-03 -2.439999856289e-03 -2.440000048624e-03 -2.439999928360e-03 -2.439999831297e-03 -2.440000012915e-03 -2.439999977651e-03 -2.439999876434e-03 -2.439999945772e-03 -2.440000199247e-03 -2.439999949007e-03 -2.440000227769e-03 -2.439999821602e-03 -2.440000050248e-03 -2.440000297938e-03 -2.439999861671e-03 -2.439999972066e-03 -2.439999913301e-03 -2.439999722080e-03 -2.439999982515e-03 -2.440000033750e-03 -2.440000034883e-03 -2.440000007762e-03 -2.440000003420e-03 -2.439999992610e-03 -2.440000001321e-03 -2.439999987325e-03 -2.439999988897e-03 -2.439999953257e-03 -2.439999948734e-03 -2.439999931103e-03 -2.439999928261e-03 -2.439999997790e-03 -2.439999973759e-03 -2.439999974238e-03 -2.439999763808e-03 -2.439999688563e-03 -2.439999745971e-03 -2.439999787408e-03 -2.439999779238e-03 -2.439999764709e-03 -2.439999889534e-03 -2.439999896844e-03 -2.439999921966e-03 -2.439999986548e-03 -2.440000002412e-03 -2.440000006738e-03 -2.440000027556e-03 -2.440000056911e-03 -2.440000105708e-03 -2.440000241650e-03 -2.440000233420e-03 -2.440000191560e-03 -2.440000126654e-03 -2.440000142245e-03 -2.440000117220e-03 -2.440000012300e-03 -2.440000005235e-03 -2.440000023686e-03 -2.439999956823e-03 -2.439999975554e-03 -2.439999980921e-03 -2.439999949345e-03 -2.440000018568e-03 -2.439999986232e-03 -2.440000033135e-03 -2.440000054234e-03 -2.440000055476e-03 -2.439999983905e-03 -2.440000021750e-03 -2.440000001700e-03 -2.440000127087e-03 -2.440000156698e-03 -2.440000183339e-03 -2.440000224918e-03 -2.440000198170e-03 -2.440000247661e-03 -2.440000030180e-03 -2.440000043121e-03 -2.440000028629e-03 -2.439999980253e-03 -2.440000009366e-03 -2.440000274352e-03 -2.440000288507e-03 -2.439999777277e-03 -2.439999727208e-03 -2.440000016216e-03 -2.440000043278e-03 -2.440000061587e-03 -2.440000048070e-03 -2.440000024798e-03 -2.440000029829e-03 -2.440000020995e-03 -2.440000039107e-03 -2.439999917418e-03 -2.439999949601e-03 -2.439999957483e-03 -2.439999987150e-03 -2.439999858029e-03 -2.439999885150e-03 -2.439999795381e-03 -2.440000011818e-03 -2.439999968000e-03 -2.439999961476e-03 -2.440000002890e-03 -2.440000066984e-03 -2.440000196676e-03 -2.440000191896e-03 -2.440000052575e-03 -2.439999779286e-03 -2.440000000882e-03 -2.440000005010e-03 -2.440000025530e-03 -2.439999928435e-03 -2.440000048282e-03 -2.439999950028e-03 -2.439999970314e-03 -2.440000291234e-03 -2.439999835914e-03 -2.439999923637e-03 -2.439999563581e-03 -2.439999993354e-03 -2.439999978502e-03 -2.439999988811e-03 -2.440000002082e-03 -2.439999986103e-03 -2.439999977449e-03 -2.439999950405e-03 -2.439999929356e-03 -2.439999952289e-03 -2.439999929007e-03 -2.439999926782e-03 -2.439999928877e-03 -2.439999952351e-03 -2.439999928447e-03 -2.439999922083e-03 -2.439999682320e-03 -2.439999643972e-03 -2.439999634510e-03 -2.440000119331e-03 -2.440000202101e-03 -2.440000168969e-03 -2.440000200856e-03 -2.440000262560e-03 -2.440000243256e-03 -2.440000122667e-03 -2.440000117476e-03 -2.440000139250e-03 -2.439999776166e-03 -2.439999824330e-03 -2.439999781535e-03 -2.439999914279e-03 -2.439999890926e-03 -2.439999883257e-03 -2.440000037562e-03 -2.440000043551e-03 -2.440000068033e-03 -2.440000028262e-03 -2.440000025613e-03 -2.440000030605e-03 -2.440000054898e-03 -2.440000057463e-03 -2.440000036218e-03 -2.439999989109e-03 -2.440000008767e-03 -2.440000025591e-03 -2.439999730420e-03 -2.439999707975e-03 -2.439999653151e-03 -2.440000050944e-03 -2.440000127953e-03 -2.440000053057e-03 -2.440000241447e-03 -2.440000259422e-03 -2.440000295712e-03 -2.440000250820e-03 -2.440000258885e-03 -2.440000248171e-03 -2.440000038156e-03 -2.440000022082e-03 -2.440000007373e-03 -2.440000031409e-03 -2.440000066859e-03 -2.440000063829e-03 -2.440000000490e-03 -2.439999950669e-03 -2.439999949332e-03 -2.440000228247e-03 -2.440000195110e-03 -2.440000057245e-03 -2.440000112219e-03 -2.440000067287e-03 -2.440000127284e-03 -2.440000048677e-03 -2.440000047141e-03 -2.439999974831e-03 -2.439999957576e-03 -2.439999645334e-03 -2.439999998740e-03 -2.440000041690e-03 -2.439999991464e-03 -2.439999930630e-03 -2.439999926464e-03 -2.439999996955e-03 -2.439999677494e-03 -2.440000186634e-03 -2.440000245851e-03 -2.440000007747e-03 -2.440000022588e-03 -2.440000064101e-03 -2.440000214830e-03 -2.439999913339e-03 -2.439999764599e-03 -2.439999985178e-03 -2.440000050368e-03 -2.440000109552e-03 -2.440000156386e-03 -2.439999921995e-03 -2.440000054352e-03 -2.440000013418e-03 -2.439999465187e-03 -2.439999860674e-03 -2.439999971548e-03 -2.439999953208e-03 -2.439999932740e-03 -2.439999926832e-03 -2.439999922656e-03 -2.439999914712e-03 -2.439999924187e-03 -2.439999920532e-03 -2.439999922380e-03 -2.439999936684e-03 -2.439999907402e-03 -2.439999929137e-03 -2.439999935984e-03 -2.439999914306e-03 -2.439999912832e-03 -2.439999578345e-03 -2.439999482529e-03 -2.439999566848e-03 -2.439999746412e-03 -2.439999664506e-03 -2.439999764222e-03 -2.439999824375e-03 -2.439999814250e-03 -2.439999815014e-03 -2.440000085026e-03 -2.440000078670e-03 -2.440000139165e-03 -2.440000241903e-03 -2.440000284696e-03 -2.440000362035e-03 -2.440000194377e-03 -2.440000219112e-03 -2.440000187608e-03 -2.440000164606e-03 -2.440000207594e-03 -2.440000182304e-03 -2.440000116172e-03 -2.440000087586e-03 -2.440000114543e-03 -2.439999995202e-03 -2.439999974464e-03 -2.439999949927e-03 -2.440000043500e-03 -2.440000005227e-03 -2.440000057636e-03 -2.440000014918e-03 -2.440000040563e-03 -2.439999988307e-03 -2.439999944734e-03 -2.439999884959e-03 -2.439999996017e-03 -2.440000340290e-03 -2.440000438526e-03 -2.440000384995e-03 -2.440000306860e-03 -2.440000327521e-03 -2.440000318670e-03 -2.439999997754e-03 -2.439999936434e-03 -2.439999985445e-03 -2.440000086506e-03 -2.440000098776e-03 -2.440000110931e-03 -2.439999914979e-03 -2.439999919196e-03 -2.439999926308e-03 -2.440000245801e-03 -2.440000260092e-03 -2.440000185981e-03 -2.440000223096e-03 -2.439999651024e-03 -2.439999612613e-03 -2.439999544192e-03 -2.440000152128e-03 -2.440000160849e-03 -2.440000065267e-03 -2.440000082213e-03 -2.440000014146e-03 -2.440000057934e-03 -2.439999933278e-03 -2.439999952790e-03 -2.439999921566e-03 -2.439999986762e-03 -2.439999826432e-03 -2.440000312772e-03 -2.440000182026e-03 -2.439999870703e-03 -2.440000075454e-03 -2.440000002674e-03 -2.440000015771e-03 -2.440000343927e-03 -2.440000032738e-03 -2.439999923133e-03 -2.440000143128e-03 -2.440000147882e-03 -2.440000274872e-03 -2.440000062562e-03 -2.440000042755e-03 -2.439999621861e-03 -2.439999826327e-03 -2.439999433927e-03 -2.439999923696e-03 -2.439999934905e-03 -2.439999928972e-03 -2.439999929797e-03 -2.439999859601e-03 -2.439999936462e-03 -2.439999893832e-03 -2.439999869585e-03 -2.439999901645e-03 -2.439999885802e-03 -2.439999901586e-03 -2.439999876937e-03 -2.439999914177e-03 -2.439999920849e-03 -2.439999898434e-03 -2.439999966324e-03 -2.439999941305e-03 -2.440000019023e-03 -2.440000352140e-03 -2.440000407840e-03 -2.440000320765e-03 -2.440000201027e-03 -2.440000180666e-03 -2.440000213564e-03 -2.440000178889e-03 -2.440000215012e-03 -2.440000192554e-03 -2.439999718111e-03 -2.439999773343e-03 -2.439999673835e-03 -2.439999916807e-03 -2.439999860926e-03 -2.439999906187e-03 -2.439999936181e-03 -2.439999920571e-03 -2.439999878489e-03 -2.440000096576e-03 -2.440000075734e-03 -2.440000137326e-03 -2.440000025579e-03 -2.440000044846e-03 -2.439999987077e-03 -2.440000153152e-03 -2.440000202444e-03 -2.440000105139e-03 -2.439999435967e-03 -2.439999453240e-03 -2.439999807444e-03 -2.439999841878e-03 -2.439999763087e-03 -2.440000479190e-03 -2.440000489441e-03 -2.440000455047e-03 -2.440000314730e-03 -2.440000316301e-03 -2.440000389362e-03 -2.440000107156e-03 -2.440000150146e-03 -2.440000132691e-03 -2.440000099328e-03 -2.440000058569e-03 -2.440000126965e-03 -2.439999556400e-03 -2.439999544930e-03 -2.439999553429e-03 -2.439999922107e-03 -2.439999996442e-03 -2.439999873820e-03 -2.439999875407e-03 -2.440000275378e-03 -2.440000265076e-03 -2.440000101558e-03 -2.440000054357e-03 -2.440000177264e-03 -2.440000208375e-03 -2.440000348396e-03 -2.440000416812e-03 -2.439999879780e-03 -2.439999897928e-03 -2.439999941194e-03 -2.439999920133e-03 -2.439999926885e-03 -2.440000036986e-03 -2.439999778021e-03 -2.440000067426e-03 -2.439999602439e-03 -2.439999512446e-03 -2.440000182103e-03 -2.440000238078e-03 -2.439999871809e-03 -2.440000083770e-03 -2.439999956596e-03 -2.439999826618e-03 -2.440000127169e-03 -2.440000429188e-03 -2.440000409548e-03 -2.440000226018e-03 -2.439999986650e-03 -2.440000175001e-03 -2.439999470615e-03 -2.440000031316e-03 -2.440000090873e-03 -2.439999625477e-03 -2.440000081916e-03 -2.440000177789e-03 -2.439999783747e-03 -2.439999804959e-03 -2.439999881508e-03 -2.439999991133e-03 -2.439999740341e-03 -2.439999444768e-03 -2.440000377375e-03 -2.440000132926e-03 -2.440000254624e-03 -2.440000283955e-03 -2.439999501871e-03 -2.439999791426e-03 -2.439999851036e-03 -2.440000293450e-03 -2.440000438126e-03 -2.440000346459e-03 -2.440000639512e-03 -2.440000012568e-03 -2.440000474789e-03 -2.439999927130e-03 -2.439999819554e-03 -2.439999855775e-03 -2.440000732318e-03 -2.440000149068e-03 -2.439999648958e-03 -2.440000246718e-03 -2.440000719694e-03 -2.439999922218e-03 -2.439999912288e-03 -2.440000008326e-03 -2.439999860525e-03 -2.439999633965e-03 -2.439999697309e-03 -2.439999651969e-03 -2.440000309847e-03 -2.440000349688e-03 -2.440000371375e-03 -2.440000274836e-03 -2.439999810388e-03 -2.439999812042e-03 -2.439999785143e-03 -2.439999848947e-03 -2.439999784426e-03 -2.439999800987e-03 -2.439999781663e-03 -2.439999818737e-03 -2.440000385254e-03 -2.440000455810e-03 -2.440000369275e-03 -2.440000439561e-03 -2.440000488717e-03 -2.439999750104e-03 -2.439999823639e-03 -2.440000167233e-03 -2.440000041047e-03 -2.439999930760e-03 -2.439999985107e-03 -2.439999856955e-03 -2.439999869677e-03 -2.439999904444e-03 -2.439999884775e-03 -2.439999789745e-03 -2.440000000253e-03 -2.439999673506e-03 -2.440000156827e-03 -2.439999596087e-03 -2.440000127686e-03 -2.439999710681e-03 -2.439999918525e-03 -2.439999875486e-03 -2.439999807215e-03 -2.440000209700e-03 -2.440000130368e-03 -2.440000044168e-03 -2.440000306766e-03 -2.439999753660e-03 -2.440000238426e-03 -2.440000133687e-03 -2.440000229822e-03 -2.440000318890e-03 -2.440000128743e-03 -2.440000267372e-03 -2.440000316826e-03 -2.439999777054e-03 -2.439999705668e-03 -2.439999719697e-03 -2.439999980819e-03 -2.439999892939e-03 -2.439999921631e-03 -2.440000055912e-03 -2.440000018669e-03 -2.439999982787e-03 -2.440000365132e-03 -2.440000432067e-03 -2.440000305818e-03 -2.439999728698e-03 -2.439999797302e-03 -2.439999819637e-03 -2.439999936986e-03 -2.439999887140e-03 -2.439999834695e-03 -2.439999905415e-03 -2.440000229872e-03 -2.440000703833e-03 -2.440000634115e-03 -2.440000619900e-03 -2.440000686286e-03 -2.440000629624e-03 -2.440000568245e-03 -2.439999867002e-03 -2.439999898421e-03 -2.439999824765e-03 -2.439999835172e-03 -2.439999796306e-03 -2.439999772673e-03 -2.439999821411e-03 -2.440000064017e-03 -2.440000053864e-03 -2.440000045010e-03 -2.439999780639e-03 -2.440000000678e-03 -2.440000029578e-03 -2.440000077530e-03 -2.440000116036e-03 -2.440000081276e-03 -2.440000177142e-03 -2.440000137063e-03 -2.440000282239e-03 -2.439999968215e-03 -2.440000026392e-03 -2.440000286385e-03 -2.440000234460e-03 -2.439999825837e-03 -2.439999836494e-03 -2.439999802006e-03 -2.439999875510e-03 -2.439999833663e-03 -2.439999798992e-03 -2.439999794653e-03 -2.439999845924e-03 -2.440000304266e-03 -2.440000331614e-03 -2.440000397661e-03 -2.440000190498e-03 -2.439999804976e-03 -2.439999790325e-03 -2.439999843761e-03 -2.439999772909e-03 -2.440000501324e-03 -2.440000452367e-03 -2.440000477734e-03 -2.440000035711e-03 -2.440000009921e-03 -2.440000448139e-03 -2.440000355461e-03 -2.440000545064e-03 -2.440000146412e-03 -2.439999974746e-03 -2.439999488608e-03 -2.439999656262e-03 -2.440000111153e-03 -2.440000397149e-03 -2.440000346016e-03 -2.440000065916e-03 -2.440000132167e-03 -2.440000035533e-03 -2.440000188769e-03 -2.440000081469e-03 -2.440000233391e-03 -2.440000091685e-03 -2.440000207695e-03 -2.440000084915e-03 -2.439999693631e-03 -2.439999660375e-03 -2.439999729009e-03 -2.439999808980e-03 -2.439999791386e-03 -2.439999793095e-03 -2.439999807085e-03 -2.439999792766e-03 -2.440000030417e-03 -2.440000237613e-03 -2.439999903661e-03 -2.439999882367e-03 -2.439999984266e-03 -2.439999660840e-03 -2.439999736162e-03 -2.439999583568e-03 -2.439999634052e-03 -2.439999723326e-03 -2.439999841057e-03 -2.439999820197e-03 -2.439999812738e-03 -2.440000161350e-03 -2.440000147686e-03 -2.439999623885e-03 -2.439999747096e-03 -2.439999747982e-03 -2.440000152799e-03 -2.440000158366e-03 -2.440000182422e-03 -2.440000047648e-03 -2.439999972984e-03 -2.440000147850e-03 -2.440000158914e-03 -2.440000145141e-03 -2.440000083767e-03 -2.440000205566e-03 -2.439999800294e-03 -2.439999870920e-03 -2.440000556792e-03 -2.440000461251e-03 -2.440000559230e-03 -2.440000447111e-03 -2.440000572026e-03 -2.440000071451e-03 -2.440000371874e-03 -2.440000236785e-03 -2.439999785152e-03 -2.440000537808e-03 -2.439999683290e-03 -2.439999710836e-03 -2.439999707758e-03 -2.439999599541e-03 -2.439999571787e-03 -2.439999625386e-03 -2.440000104875e-03 -2.440000053010e-03 -2.440000139428e-03 -2.440000122400e-03 -2.440000145381e-03 -2.440000137952e-03 -2.440000217060e-03 -2.440000071498e-03 -2.440000125885e-03 -2.440000063001e-03 -2.440000011712e-03 -2.440000025379e-03 -2.440000778875e-03 -2.439999834032e-03 -2.439999811192e-03 -2.439999887522e-03 -2.439999794441e-03 -2.440000203625e-03 -2.440000201997e-03 -2.440000238385e-03 -2.440000168548e-03 -2.440000225077e-03 -2.439999929201e-03 -2.439999830581e-03 -2.439999999985e-03 -2.440000393365e-03 -2.440000384214e-03 -2.439999922077e-03 -2.439999584089e-03 -2.439999685673e-03 -2.439999772519e-03 -2.439999608629e-03 -2.439999594533e-03 -2.439999622069e-03 -2.439999655883e-03 -2.439999521714e-03 -2.439999779892e-03 -2.439999757701e-03 -2.439999799184e-03 -2.439999773900e-03 -2.440000683690e-03 -2.440000606361e-03 -2.440000604318e-03 -2.439999442293e-03 -2.439999495935e-03 -2.439999752454e-03 -2.439999763551e-03 -2.439999945085e-03 -2.439999931691e-03 -2.440000095321e-03 -2.440000197682e-03 -2.440000284186e-03 -2.440000159607e-03 -2.440000246803e-03 -2.440000061055e-03 -2.439999935473e-03 -2.439999616647e-03 -2.439999603839e-03 -2.439999681108e-03 -2.439999714526e-03 -2.439999727401e-03 -2.439999718088e-03 -2.440000114263e-03 -2.440000074221e-03 -2.439999958415e-03 -2.440000047723e-03 -2.439999994764e-03 -2.440000047581e-03 -2.439999723244e-03 -2.439999582137e-03 -2.439999755269e-03 -2.439999854109e-03 -2.439999818891e-03 -2.439999913007e-03 -2.440000190222e-03 -2.440000195305e-03 -2.440000158290e-03 -2.439999776261e-03 -2.440000040463e-03 -2.439999980689e-03 -2.439999990918e-03 -2.440000067292e-03 -2.440000058031e-03 -2.439999966632e-03 -2.439999616653e-03 -2.439999702096e-03 -2.439999709500e-03 -2.439999842803e-03 -2.439999861522e-03 -2.439999923695e-03 -2.439999962181e-03 -2.439999778619e-03 -2.439999725469e-03 -2.440000114054e-03 -2.439999572629e-03 -2.440000033357e-03 -2.439999962169e-03 -2.440000142156e-03 -2.440000134556e-03 -2.439999667744e-03 -2.439999955162e-03 -2.439999811501e-03 -2.439999762911e-03 -2.439999783767e-03 -2.439999778873e-03 -2.440000071347e-03 -2.439999808095e-03 -2.439999805345e-03 -2.439999724377e-03 -2.439999762055e-03 -2.439999859298e-03 -2.440000659267e-03 -2.440000721861e-03 -2.439999887307e-03 -2.439999895813e-03 -2.439999693911e-03 -2.439999727053e-03 -2.439999954061e-03 -2.439999771213e-03 -2.440000006249e-03 -2.440000362633e-03 -2.440000027951e-03 -2.439999970854e-03 -2.440000630150e-03 -2.440000507731e-03 -2.439999761288e-03 -2.439999921616e-03 -2.439999945422e-03 -2.439999887311e-03 -2.439999885218e-03 -2.440000248112e-03 -2.439999796358e-03 -2.440000098153e-03 -2.440000337014e-03 -2.440000108547e-03 -2.440000018316e-03 -2.440000085364e-03 -2.439999695088e-03 -2.439999732629e-03 -2.439999686460e-03 -2.439999782517e-03 -2.440000772620e-03 -2.439999792014e-03 -2.440000211871e-03 -2.440000350842e-03 -2.440000333371e-03 -2.439999808882e-03 -2.440000296815e-03 -2.440000271048e-03 -2.439999904524e-03 -2.439999749756e-03 -2.440000227822e-03 -2.439999491590e-03 -2.439999526553e-03 -2.439999769579e-03 -2.440000613136e-03 -2.440000403667e-03 -2.440000651221e-03 -2.439999466080e-03 -2.439999647635e-03 -2.439999774315e-03 -2.440000141385e-03 -2.439999837134e-03 -2.439999835352e-03 -2.440000096656e-03 -2.440000513420e-03 -2.439999757186e-03 -2.440000160973e-03 -2.440000124303e-03 -2.440000002676e-03 -2.439999793625e-03 -2.439999805816e-03 -2.439999840080e-03 -2.440000298829e-03 -2.439999777009e-03 -2.440000172255e-03 -2.439999624966e-03 -2.440000163667e-03 -2.439999649253e-03 -2.439999580005e-03 -2.439999932647e-03 -2.439999640464e-03 -2.439999717816e-03 -2.440000093995e-03 -2.439999767224e-03 -2.439999965270e-03 -2.439999737634e-03 -2.439999816412e-03 -2.439999952868e-03 -2.439999969641e-03 -2.440000247364e-03 -2.439999788565e-03 -2.439999778114e-03 -2.440000044342e-03 -2.439999641186e-03 -2.440000096150e-03 -2.439999810664e-03 -2.439999901726e-03 -2.440000001823e-03 -2.439999919689e-03 -2.440000115448e-03 -2.439999952504e-03 -2.439999959873e-03 -2.439999800779e-03 -2.439999821612e-03 -2.440000028725e-03 -2.439999819055e-03 -2.439999860915e-03 -2.439999919455e-03 -2.439999843917e-03 -2.439999746941e-03 -2.439999977991e-03 -2.439999856399e-03 -2.440000147229e-03 -2.439999931671e-03 -2.439999537826e-03 -2.439999672901e-03 -2.440000080174e-03 -2.440000156061e-03 -2.440000559831e-03 -2.439999792485e-03 -2.439999894389e-03 -2.439999836049e-03 -2.439999776550e-03 -2.440000429428e-03 -2.440000149999e-03 -2.440000221100e-03 -2.439999767692e-03 -2.440000189979e-03 -2.439999786340e-03 -2.439999696701e-03 -2.440000139942e-03 -2.440000385851e-03 -2.440000109418e-03 -2.440000091795e-03 -2.440000006089e-03 -2.439999770638e-03 -2.439999748678e-03 -2.439999784403e-03 -2.440000489407e-03 -2.439999814239e-03 -2.439999568023e-03 -2.440000148254e-03 -2.439999730088e-03 -2.440000030615e-03 -2.440000080602e-03 -2.439999868406e-03 -2.440000243994e-03 -2.439999678584e-03 -2.439999700942e-03 -2.440000647924e-03 -2.439999927383e-03 -2.440000107535e-03 -2.439999856301e-03 -2.439999823980e-03 -2.439999827204e-03 -2.440000086772e-03 -2.440000207098e-03 -2.439999889974e-03 -2.439999789770e-03 -2.440000239913e-03 -2.439999848806e-03 -2.440000307981e-03 -2.440000157210e-03 -2.439999867212e-03 -2.440000547160e-03 -2.439999843465e-03 -2.439999737423e-03 -2.440000248025e-03 -2.439999818986e-03 -2.440000696229e-03 -2.439999775267e-03 -2.439999706608e-03 -2.440000220075e-03 -2.440000122032e-03 -2.439999639216e-03 -2.439999881800e-03 -2.439999877602e-03 -2.440000401434e-03 -2.439999962223e-03 -2.440000060521e-03 -2.439999841262e-03 -2.440000173287e-03 -2.440000089608e-03 -2.439999952858e-03 -2.439999777077e-03 -2.439999873579e-03 -2.439999936174e-03 -2.440000044206e-03 -2.440000068430e-03 -2.440000015844e-03 -2.440000093677e-03 -2.440000205570e-03 -2.439999769781e-03 -2.440000369569e-03 -2.439999916243e-03 -2.440000082006e-03 -2.439999806831e-03 -2.440000137733e-03 -2.439999891282e-03 -2.439999792451e-03 -2.439999879086e-03 -2.439999898820e-03 -2.439999863754e-03 -2.440000338009e-03 -2.439999797380e-03 -2.439999702162e-03 -2.440000127735e-03 -2.439999852648e-03 -2.440000163312e-03 -2.440000055280e-03 -2.439999953068e-03 -2.439999866912e-03 -2.440000082633e-03 -2.440000045372e-03 -2.439999751358e-03 -2.440000019575e-03 -2.440000365645e-03 -2.439999716697e-03 -2.439999708549e-03 -2.440000136505e-03 -2.440000202020e-03 -2.440000049746e-03 -2.439999785221e-03 -2.440000480880e-03 -2.439999952991e-03 -2.440000141626e-03 -2.440000130350e-03 -2.440000276298e-03 -2.440000098134e-03 -2.439999926812e-03 -2.439999828852e-03 -2.439999943415e-03 -2.440000399429e-03 -2.439999941279e-03 -2.440000121181e-03 -2.440000103255e-03 -2.440000150076e-03 -2.439999808603e-03 -2.439999872619e-03 -2.439999932263e-03 -2.439999817834e-03 -2.440000145686e-03 -2.440000117115e-03 -2.439999767142e-03 -2.439999991105e-03 -2.439999714989e-03 -2.439999838050e-03 -2.439999902876e-03 -2.439999851347e-03 -2.439999979544e-03 -2.439999826814e-03 -2.440000026426e-03 -2.439999840921e-03 -2.440000045958e-03 -2.439999838203e-03 -2.439999824128e-03 -2.440000014157e-03 -2.439999898321e-03 -2.440000214154e-03 -2.440000154818e-03 -2.439999764302e-03 -2.439999965156e-03 -2.439999975668e-03 -2.440000236924e-03 -2.439999915363e-03 -2.439999881714e-03 -2.439999811777e-03 -2.440000548289e-03 -2.439999705897e-03 -2.440000109146e-03 -2.440000024355e-03 -2.440000126438e-03 -2.439999887568e-03 -2.439999679895e-03 -2.439999855407e-03 -2.439999899979e-03 -2.439999889315e-03 -2.440000054527e-03 -2.440000607596e-03 -2.440000160162e-03 -2.439999839000e-03 -2.440000011803e-03 -2.440000088212e-03 -2.439999872461e-03 -2.439999950379e-03 -2.439999944889e-03 -2.439999917737e-03 -2.439999860757e-03 -2.439999831749e-03 -2.440000134786e-03 -2.439999898720e-03 -2.439999950073e-03 -2.439999808518e-03 -2.440000191799e-03 -2.439999840609e-03 -2.439999928601e-03 -2.439999968697e-03 -2.440000189280e-03 -2.439999938383e-03 -2.439999743905e-03 -2.439999929974e-03 -2.439999928293e-03 -2.440000108390e-03 -2.440000247135e-03 -2.440000403887e-03 -2.439999903991e-03 -2.440000140125e-03 -2.440000189282e-03 -2.439999915169e-03 -2.439999755633e-03 -2.439999875764e-03 -2.439999801444e-03 -2.439999690517e-03 -2.440000101815e-03 -2.440000311611e-03 -2.440000161172e-03 -2.439999812729e-03 -2.440000123200e-03 -2.439999835616e-03 -2.440000565161e-03 -2.439999968352e-03 -2.439999912630e-03 -2.439999643307e-03 -2.439999879123e-03 -2.440000011837e-03 -2.440000018315e-03 -2.440000144787e-03 -2.439999837038e-03 -2.440000079840e-03 -2.439999830220e-03 -2.440000168576e-03 -2.440000368993e-03 -2.439999942325e-03 -2.440000087995e-03 -2.439999982382e-03 -2.439999785685e-03 -2.439999817024e-03 -2.439999985610e-03 -2.440000037853e-03 -2.440000110258e-03 -2.440000307696e-03 -2.439999753349e-03 -2.440000133675e-03 -2.440000008053e-03 -2.440000076171e-03 -2.440000178143e-03 -2.440000170797e-03 -2.439999902838e-03 -2.439999799125e-03 -2.439999946705e-03 -2.440000315915e-03 -2.440000124589e-03 -2.439999793031e-03 -2.439999843533e-03 -2.440000124124e-03 -2.439999742904e-03 -2.439999821648e-03 -2.439999820701e-03 -2.440000089767e-03 -2.439999702190e-03 -2.440000203144e-03 -2.440000043151e-03 -2.440000127085e-03 -2.439999835692e-03 -2.440000013718e-03 -2.439999950162e-03 -2.440000166222e-03 -2.439999710585e-03 -2.440000204739e-03 -2.440000155945e-03 -2.440000125199e-03 -2.439999784737e-03 -2.440000133332e-03 -2.439999797565e-03 -2.440000341375e-03 -2.439999808857e-03 -2.439999845264e-03 -2.439999925886e-03 -2.439999928645e-03 -2.439999615382e-03 -2.439999830271e-03 -2.439999994200e-03 -2.439999841356e-03 -2.439999824352e-03 -2.439999635049e-03 -2.439999915597e-03 -2.439999912593e-03 -2.439999868732e-03 -2.439999993062e-03 -2.439999811828e-03 -2.440000159825e-03 -2.440000027690e-03 -2.439999675718e-03 -2.439999916737e-03 -2.440000090409e-03 -2.439999767694e-03 -2.440000131579e-03 -2.439999718572e-03 -2.439999532890e-03 -2.440000097685e-03 -2.439999970963e-03 -2.439999862940e-03 -2.440000511097e-03 -2.439999908345e-03 -2.440000183469e-03 -2.439999834177e-03 -2.440000256133e-03 -2.440000184416e-03 -2.440000125480e-03 -2.440000029759e-03 -2.439999752353e-03 -2.440000149328e-03 -2.440000060292e-03 -2.439999683135e-03 -2.439999945233e-03 -2.440000038106e-03 -2.439999743930e-03 -2.439999977781e-03 -2.439999823314e-03 -2.439999732563e-03 -2.439999851235e-03 -2.439999884509e-03 -2.440000188990e-03 -2.439999749701e-03 -2.440000160922e-03 -2.439999686722e-03 
        </DataArray>
        <DataArray type="Float64" Name="STRAIN_XZ" format="ascii">
          -9.787532991833e-11 -2.970953344450e-11 -9.191172273502e-11 -7.462894403534e-12 -5.934697178134e-13 -5.921104463217e-13 -1.954992504688e-11 -1.350321725577e-11 -8.827126529720e-12 -2.858972526313e-11 -6.361662840998e-11 -6.682695587452e-11 -3.738889978872e-11 -2.898670963752e-11 -9.308787503365e-11 -2.962424140575e-11 -7.412952341089e-11 -6.155184406146e-11 -1.125651090857e-10 -6.256758426367e-11 -1.045851015428e-10 -3.603910639606e-11 -1.164050975836e-10 -2.758976715807e-11 -5.440723193876e-12 6.821204770006e-12 -1.100474241743e-10 -9.372045126728e-11 -1.106609762979e-10 -6.509847261943e-11 -1.468356654004e-10 -5.088136082893e-11 -1.186386470160e-10 -1.553521799628e-10 -1.981251734112e-10 7.434093054690e-12 7.287623484999e-12 -3.413364823718e-12 -1.854951466831e-10 -9.073187042955e-11 -6.075856150906e-12 2.639727085284e-11 -4.451790444528e-12 -3.406014456186e-11 -7.371294276254e-11 1.979213957078e-12 -1.858846742619e-11 -1.490110165611e-10 -1.038727326743e-10 -1.354281668290e-10 -7.136251656697e-11 -8.938858660791e-11 -1.032925227989e-10 -1.560363283026e-10 -9.185636064151e-11 8.295282567699e-12 -3.168864187257e-11 -8.791456173955e-11 -2.097183348929e-10 -9.139791354307e-11 -1.726418770164e-10 -5.224531640526e-11 4.650686855036e-12 -9.599678710127e-11 -4.220999822816e-11 -1.387716916205e-11 -8.819346453947e-12 -1.221641622497e-11 -2.844715006091e-11 -4.139489970900e-11 2.555749419967e-11 -1.996153531821e-11 -4.468842526931e-11 -7.268533619315e-11 -1.032438884313e-10 -1.301878685874e-10 -3.406996946573e-11 -8.669979484055e-12 -1.033459099186e-10 -1.202623211700e-10 -5.767073837073e-11 -7.505366120264e-11 -1.739323191096e-10 -2.096097295404e-11 1.466472639213e-11 -9.544013182274e-11 -1.205110672711e-10 -1.433278568168e-10 -8.900161367446e-11 -6.764230097630e-11 2.266919724853e-12 -1.352946326100e-10 -5.522083775830e-11 1.847361163895e-11 4.389931454873e-11 -1.671760253378e-11 -8.866663762519e-11 -1.104557061171e-10 -9.908678509737e-11 -8.010006618101e-11 -9.070424190178e-11 -2.495908191393e-11 1.439854498491e-11 -4.352405890685e-11 -1.647156213580e-10 -1.276595471566e-10 -1.139408537428e-10 -1.421928786996e-10 -1.033516268143e-10 6.592858777537e-12 -1.884618726992e-12 1.581335046438e-11 8.078015826961e-12 6.791743401042e-12 6.862395586497e-12 1.024729801791e-11 -2.783153634826e-11 -4.504602754175e-11 2.973956967214e-11 3.073090638447e-11 4.751943787862e-11 -4.318942802509e-12 -5.763432784167e-12 1.453128255022e-11 3.795669501271e-11 6.789162799711e-11 6.467064584973e-11 7.272086646871e-11 4.632561039570e-11 7.808832476561e-11 4.706477300895e-11 4.384225882095e-11 1.479887761664e-11 2.094481226142e-12 2.371393008560e-12 3.550414286570e-11 2.438060677282e-11 4.806299116709e-11 1.979118170244e-11 2.087988792613e-11 9.467233420823e-12 6.521356467105e-11 7.021237757142e-11 8.907521741090e-11 9.127666308926e-12 -1.646758693913e-11 5.097841320729e-12 8.605926906793e-11 7.962463508271e-11 5.549765226256e-11 2.977124943733e-11 3.100472009711e-11 4.060135575185e-11 2.377296391564e-11 2.263207663383e-13 4.781662280394e-12 4.771067666122e-11 5.017538941077e-11 6.429530059040e-11 4.572004755117e-11 4.602412526497e-11 9.022793239559e-11 7.864719107362e-11 3.171880019881e-11 6.677257245595e-12 1.840082420967e-11 2.961021409985e-11 6.670353478279e-11 7.790127230175e-11 6.293688124824e-11 3.569669717492e-11 2.043946735308e-11 2.559842200448e-11 5.043268275507e-11 3.633643859741e-12 2.841558065688e-12 -1.630216491313e-11 4.929374445611e-12 3.302620613240e-11 3.397628276995e-11 1.154026373070e-11 3.706947273091e-12 3.571280440201e-11 9.695691651979e-11 1.139192843065e-10 8.373242973998e-12 2.333079318028e-13 6.514460916462e-11 2.964991876875e-11 1.117130537381e-11 3.492030848873e-11 5.904988245512e-11 1.673462696541e-11 1.848639350697e-11 8.195093645936e-11 1.085806490401e-10 4.231342388747e-11 2.203943191408e-11 7.919067349119e-11 -9.391600675164e-12 3.509475505473e-11 3.520270729084e-11 -1.956822431053e-12 2.974153557440e-11 2.169734431886e-12 1.824514007488e-11 5.551180864628e-11 2.748223232034e-11 1.918000637106e-11 1.188415708865e-10 5.028211777169e-11 2.484344819638e-13 3.867338775659e-11 2.877709882800e-11 2.070015866464e-11 4.151807150830e-11 4.648912283599e-11 4.235005201704e-11 4.972069262386e-11 5.320683225062e-12 -8.733088518564e-12 8.776059171318e-11 1.954870761569e-10 8.113239866901e-11 3.625386145803e-11 6.162792143868e-11 -7.173201163374e-11 -3.930869198033e-12 2.150682505482e-10 3.124728470763e-11 6.542265600790e-11 -1.412766505141e-10 -8.607825202044e-11 -1.238941279213e-10 -1.023819614022e-10 -2.969585645093e-11 2.209558722331e-11 -5.268447105055e-11 -1.629181829500e-11 2.309568064140e-12 -9.359329574995e-11 -1.115481726187e-10 1.676234549023e-11 -1.647604807518e-10 1.241977065173e-11 -3.891578301288e-11 -4.573434633993e-11 8.802667528634e-11 8.929964043615e-11 1.359182324464e-10 -3.665903258038e-11 -2.709987681308e-11 2.998631685866e-10 1.644845125989e-10 1.175879024142e-10 6.129002399641e-11 -3.226183887097e-11 -9.524769984589e-11 1.222649519967e-10 -2.645857744415e-12 2.060588389733e-13 1.547797054954e-10 8.356368208796e-11 1.966123430152e-11 2.866914285735e-10 2.563832779614e-10 1.682525151104e-10 -4.975791579201e-11 -1.557721497075e-10 -7.553926162247e-11 6.603617081447e-11 -2.790985238964e-11 -2.928476457280e-11 3.190350842255e-11 9.611939528452e-11 -4.083056115434e-11 1.683131273064e-10 5.887496078768e-11 2.991206000029e-10 1.128287578746e-10 1.821347491952e-10 3.765818036043e-10 3.877929638142e-10 3.713315111850e-10 1.052002679004e-10 1.963592837229e-10 1.858341392914e-10 -1.772592901680e-10 4.349605869810e-11 2.484115024109e-10 4.172853281086e-11 1.221055568578e-10 4.679672662380e-10 4.129889044558e-10 4.780169168159e-10 3.777245357351e-10 3.702212189666e-10 4.442473714198e-10 4.165322222555e-10 2.340115430811e-10 2.866467100574e-11 1.185410731344e-10 -4.741180219512e-11 9.766270181055e-11 7.401405414479e-12 -1.269640892348e-10 3.572830452595e-10 4.385658798571e-10 4.071536851303e-10 3.503623086279e-10 4.782204215597e-10 5.193937877653e-10 4.775544908070e-10 4.664891899558e-10 -4.974970913865e-11 3.806793422156e-12 -1.676646017300e-11 -9.062350351719e-11 1.919454084969e-11 -2.788694365400e-11 -4.760061644617e-11 -3.206807934218e-11 -1.289121984796e-11 -2.317727185425e-12 -6.725424709658e-11 -1.458575705419e-12 -6.120004000104e-11 -3.079328644845e-11 1.464717178564e-11 3.019642201698e-11 -1.581579596355e-11 7.446477764612e-11 -6.095234289805e-11 -8.075106715778e-11 1.996977054206e-10 5.391021215955e-11 7.102556823929e-11 2.018358347977e-10 1.969999890213e-10 5.465142993103e-11 -4.607429238482e-12 7.978889122395e-11 1.371410772126e-10 2.577574292244e-10 2.348909900497e-10 -5.745164696989e-11 -5.035559859715e-11 -7.843738664721e-11 -3.694956245312e-11 -4.019273694851e-11 7.915231874158e-12 2.521198019403e-10 8.934709851312e-11 1.004440740651e-10 4.364774129365e-10 4.329933269603e-10 1.802778805224e-10 3.258141945403e-10 2.024845967979e-10 3.328768996952e-10 4.183129537205e-10 3.789609280315e-10 3.265687908173e-10 3.833293499774e-10 2.844797980806e-10 2.560972210483e-10 1.828720562476e-10 3.852465587859e-10 2.558000699487e-10 3.156364079537e-10 3.967151719583e-10 1.163965751327e-10 2.308508827128e-10 2.793318647134e-10 3.637459833917e-10 3.007283683402e-10 -3.081622905218e-10 -2.982214350081e-10 -2.379311324866e-10 -9.391854483687e-11 -1.549505559705e-10 -8.118724035168e-11 -7.927331858620e-11 -1.922223758124e-11 -3.282907156480e-11 4.057410753768e-10 4.906616746872e-10 4.795876265562e-10 3.821576667215e-10 4.546282152341e-10 4.293728290241e-10 4.317074532700e-10 3.821251172258e-10 -1.308641087088e-10 -8.374245538909e-11 -5.494700951952e-11 -6.319732370258e-11 6.240973787147e-11 1.012345451970e-10 1.876016810483e-10 1.131800020602e-10 1.520842845307e-10 2.626922328571e-10 1.937372653725e-10 5.677905656895e-10 5.127830674636e-10 3.862642027122e-10 5.393467383284e-10 5.573641919224e-10 -1.778504407403e-10 -2.065352311051e-10 -1.939159589719e-10 -1.475161990824e-10 2.607703119466e-10 2.794779356509e-10 1.491625141465e-10 3.119151588250e-10 1.272302610489e-10 2.138945073939e-10 1.794545198928e-10 3.406413901748e-10 4.127392695649e-10 3.207254520059e-10 -5.761408783505e-13 7.287499119782e-11 4.881312299533e-10 4.056172886778e-10 -4.973188300698e-11 -8.992298602246e-11 -8.044449389029e-11 8.162412766811e-12 3.126280243254e-10 4.117285468004e-10 2.140634765133e-10 2.820469361356e-10 3.050017632119e-10 3.681797206955e-10 1.967453747334e-10 2.487671563167e-10 3.469248025864e-10 4.381897422539e-10 4.772991943031e-10 2.651185467425e-10 3.269751511545e-10 1.212275436492e-10 1.095687929613e-11 1.616460866958e-10 1.855708460987e-10 -6.771511466425e-11 -8.130905822766e-11 -2.147996399768e-10 2.090466377115e-10 1.694082036592e-10 -1.947582260716e-10 -1.526888810989e-10 -1.427592573476e-10 2.910959203357e-11 4.087851248908e-11 7.825992211768e-11 -3.881967140989e-11 5.691400210877e-11 -1.049121059606e-10 -8.319443133693e-11 -1.198878837663e-10 5.398852992187e-11 2.622037527511e-10 2.240811621698e-10 -3.697959081600e-11 2.700372752374e-11 4.045171881820e-11 2.551380981486e-11 7.115635913878e-12 -2.896287477468e-11 5.196477640370e-11 -9.781701833794e-12 4.632015212472e-10 4.735460204905e-10 4.145943371419e-10 8.399394049209e-11 6.307818387989e-11 1.960870701923e-12 1.755390582763e-10 6.493927209846e-11 7.909339799136e-11 1.676663691329e-10 4.803395204195e-11 3.395032706933e-11 3.511222961399e-10 2.596815109228e-10 4.388162780771e-10 1.469241850289e-10 1.629138284598e-10 9.967157160110e-11 1.851765538777e-10 1.895761639395e-10 -1.839535286791e-10 1.315880388826e-11 6.234408689267e-10 5.611194852223e-10 5.383146739602e-10 5.554423019979e-10 -1.110238819282e-10 -1.009168155219e-10 3.580590606676e-10 1.009555529156e-10 3.389323302810e-11 5.266903980575e-10 5.254233153060e-10 4.441838129647e-10 3.101826228193e-10 1.841070449712e-10 8.508131771450e-11 3.610576193855e-10 3.901448769446e-10 3.218577754886e-10 3.258362823171e-10 -2.788114885089e-11 -1.492496335627e-11 1.281821114882e-11 6.790438265120e-11 5.635124396640e-11 6.778980443516e-11 -2.038670258505e-10 -1.252966843898e-10 -1.733917255580e-10 -1.056886323893e-10 -2.061122345673e-10 -1.403056613021e-10 5.776179348556e-11 6.736601749100e-11 1.168538323396e-10 3.418649990102e-10 5.103546599602e-10 8.611820431033e-12 -7.763802172690e-11 1.361326149222e-10 -3.490433858573e-11 5.332947781295e-10 5.697320441919e-10 2.637565108892e-10 1.501941404869e-10 2.880677544096e-11 1.076401042530e-10 1.285837755716e-11 2.501550613789e-11 -4.912173004872e-11 1.587814020890e-10 2.093435944054e-10 1.958883427862e-10 1.062216856321e-10 -4.946477369054e-11 -2.115808031526e-11 -6.492473327349e-12 7.480474277963e-11 -1.696623787642e-11 1.345618181406e-10 1.504738476110e-11 -1.510137761488e-10 -2.142876241215e-10 2.826285478537e-10 8.693514051000e-11 5.895213463623e-10 4.795805134350e-11 9.727032217400e-11 1.252875488541e-10 1.118625678921e-10 -2.502248603921e-10 -1.655348453508e-10 1.657209183775e-10 -1.831485276300e-11 1.980113391444e-10 6.624926842284e-11 2.066038783789e-11 4.166875367770e-11 -1.956010243296e-10 -2.953793998554e-10 -2.710473302427e-10 1.083834941404e-10 4.137902359083e-11 1.109519589557e-10 3.712828981410e-11 1.146386250106e-10 2.937697697949e-11 8.322906857520e-11 -3.849923995777e-11 -7.074498891433e-12 -8.831749620469e-11 -2.158348674904e-11 2.268658958068e-10 2.526104723981e-10 2.627178847769e-10 2.392174877285e-10 1.269626837113e-10 1.876506328202e-10 2.709034261545e-10 2.052685197599e-10 2.530868788842e-10 -4.733630991523e-11 -6.135993429214e-11 -3.644140663237e-11 2.642113627853e-11 -1.313765751852e-10 2.628927574524e-10 3.338970091446e-10 2.473143557070e-10 1.465217317722e-10 3.195562897051e-11 1.215234234294e-10 -5.533194577516e-11 1.890284809880e-10 9.808089598019e-12 -4.198436305839e-11 -5.723761465426e-11 -1.679926668453e-10 -1.199285771551e-10 -1.040177236569e-10 -1.970138099092e-10 -1.858475125819e-10 -2.866915194827e-10 9.322990450030e-12 -1.454324377244e-11 2.707857547235e-11 -8.862604825369e-11 -1.007717038902e-10 -1.833200272072e-11 -1.763219694672e-11 4.533553740749e-11 -1.118256335042e-10 -3.605158071668e-11 2.194307563643e-11 -1.401556708901e-11 -2.202666778867e-11 -2.120940304533e-11 1.780458424646e-10 3.498959199674e-11 -1.244966332084e-10 -6.329669033558e-11 2.179201628399e-10 -6.396394412719e-11 -4.456219283913e-12 -1.631975759888e-10 -1.938835671294e-10 -1.976482479563e-10 -1.813978843437e-10 -1.449119722511e-10 -1.667723512336e-10 5.983489305879e-10 3.606874538297e-10 9.501263833034e-11 2.957373781891e-10 2.157166594079e-10 -9.204369801064e-11 -1.648695531949e-11 -3.571652486172e-11 -1.633713515550e-12 1.246335611213e-11 2.625605563406e-11 2.706986559099e-11 3.058105157994e-11 5.230803739306e-10 2.604075346561e-10 -2.341418311931e-11 -1.891323485268e-10 -4.215797530468e-12 -5.275864384222e-11 4.976217731163e-10 3.350362850190e-11 3.656439856205e-10 3.654727288600e-10 1.799856822586e-10 4.109038191083e-10 -1.225006747206e-10 -8.279311484621e-11 -1.520599313132e-10 1.549002981040e-10 1.119063779974e-10 3.751064302378e-11 -3.215144370976e-10 -2.972951586615e-10 -2.834299695622e-10 -1.038933908522e-10 -7.642454608316e-11 -3.492327217344e-11 6.703375619138e-11 -2.585069918543e-11 1.061918616282e-10 -7.226692237805e-11 5.472287928354e-10 1.462729599522e-10 2.286851132154e-10 3.053039182537e-10 2.444796723904e-10 2.129474116405e-11 8.300657849871e-11 2.719106492283e-10 2.658078199580e-10 3.656309643579e-10 5.864334846921e-10 4.607427129203e-10 7.256446049097e-11 3.124108664004e-11 -3.819272281971e-12 2.472085685498e-10 2.811590109900e-10 3.776769719758e-10 3.777593488790e-10 4.509695072380e-10 4.141312537111e-10 -2.060570262957e-10 -2.344459910600e-11 -4.445125113706e-11 3.943007580587e-11 -1.111987394577e-12 1.006399576908e-10 1.607480761637e-10 -6.432584472075e-11 -1.148548596273e-10 -1.478922579308e-10 2.038114747465e-10 2.011495314028e-10 2.680563424730e-10 1.466859092907e-10 1.070337352057e-10 -3.892647121885e-10 -4.523660439293e-11 3.803647715564e-10 5.099511058135e-11 -5.734938988182e-11 1.467634552480e-10 -5.939678520233e-11 -4.936727916290e-11 -8.696345746743e-11 -3.500621887543e-11 3.726981940659e-11 -2.314621261403e-10 5.518492617879e-10 5.453948920859e-10 1.686431340929e-10 3.796154052996e-10 1.935975946106e-10 7.902524922059e-11 -9.936197363662e-12 3.788928632161e-10 8.594308617739e-11 8.665050852767e-11 1.260763289775e-10 -1.574481661946e-11 1.002711009999e-10 6.396681397821e-11 1.642805441559e-10 1.732964318288e-10 2.383766361386e-10 -1.305526258569e-10 -1.600453221990e-10 2.255872445827e-10 1.613750751745e-10 2.057248458320e-10 -6.858936451211e-11 3.135578155918e-10 3.257313888524e-10 1.867366100978e-10 2.403997806811e-10 3.400277493381e-11 3.714849864210e-10 3.673889536536e-10 3.728956154908e-10 -8.007623310738e-12 3.011405564803e-11 -4.098925018847e-11 1.638035450592e-11 7.306891029012e-10 -6.848357971568e-11 4.265616818306e-10 5.210264849773e-10 2.349484213663e-10 -7.855210977967e-11 -1.033329227487e-10 8.518539721993e-11 4.549600132515e-10 -1.192439070903e-10 -2.247533789034e-10 2.252022828564e-11 -1.677212020888e-10 -1.480982824078e-10 2.849863904525e-11 2.663970265447e-10 5.847941621264e-10 4.312623594344e-10 -9.153413198122e-11 -1.726535689880e-10 -2.164313967243e-10 5.859253413280e-11 1.823118943345e-10 4.901059153424e-11 5.287194804656e-10 1.739207900383e-10 9.399924957333e-11 1.410481652868e-10 4.530130986228e-10 -2.433573460803e-10 -2.664722861231e-11 1.582952806739e-10 3.494849877762e-10 1.412790493242e-10 5.308929930508e-10 9.380863466425e-12 4.331469220720e-11 2.301918965530e-10 -1.427210101259e-10 -2.119416850355e-10 -7.341628109845e-11 3.796805985771e-10 3.521270416455e-10 3.411834097218e-10 4.139031242745e-10 2.101559417767e-10 3.633456056645e-10 1.362101073690e-10 -6.109503400510e-11 8.833418551062e-11 1.755895231215e-10 -1.663753784337e-10 -1.813054856710e-10 7.941270865329e-11 -1.045105498887e-10 3.064956201525e-10 -3.164406712447e-10 -4.448707895122e-12 1.653843836186e-10 -5.671931308717e-11 1.202871685115e-11 -3.765195302080e-11 -5.856972151018e-11 -5.097319835239e-11 -5.545774384936e-11 -8.786246401300e-11 -1.141949207600e-10 -5.258567216336e-11 -8.648620644852e-11 -3.044495337981e-11 -1.039796922126e-11 -1.166548059322e-11 -1.110757025893e-11 -3.725628853471e-11 -8.117344866390e-11 -3.395724339731e-11 2.649663392341e-11 2.726240121240e-11 8.728954673274e-12 1.550156078563e-11 6.403088692944e-12 9.304451274120e-11 1.163749836514e-11 -6.409601389383e-12 7.482743782956e-11 1.345632270023e-11 1.003821613747e-10 1.030054118534e-10 4.636433155186e-11 3.983374411088e-11 6.471862009943e-11 1.224571813319e-10 1.325374275661e-10 1.037598058568e-10 9.437475945404e-11 1.213520109354e-10 6.195035109902e-11 -3.051452004127e-11 -3.440794119532e-11 2.857317777926e-11 1.196410219985e-10 1.299313985758e-10 1.291459045102e-10 -2.307195294913e-11 -7.847260393935e-12 -2.960695474231e-11 1.211081357415e-10 1.643770330806e-10 1.323022737011e-10 -1.980666769016e-11 -6.123642365032e-11 -5.403016037324e-11 6.123507859151e-11 8.435518636327e-11 1.067587884415e-10 9.250632647590e-11 1.117204286259e-10 1.352133395604e-10 1.087635448414e-10 1.181665478237e-10 1.654138291401e-10 7.217178501196e-11 5.652443713706e-11 2.421638128288e-11 -2.597645490396e-11 -8.651521176978e-12 -4.858854265385e-11 -6.707023420394e-11 -3.783351255738e-11 3.545246863224e-12 -2.113248369939e-11 9.834048817604e-11 1.176784276939e-10 8.211980419781e-11 8.643627023862e-11 -3.493904600885e-11 -6.154355879325e-11 8.375854059220e-11 6.900784673148e-11 -2.454273595184e-11 -7.714556888632e-12 -3.290072944836e-11 -1.789772831686e-11 6.942421794777e-11 1.015626810324e-10 5.931991040488e-11 -8.461486883384e-12 -2.778266611995e-11 1.670840716097e-11 1.037489497421e-11 7.940836780137e-11 -4.124501291718e-11 1.588205017803e-11 1.085199172097e-10 6.166089433828e-11 -3.805130528791e-11 4.753120113693e-11 7.733800328542e-11 1.352296777523e-11 -3.807748697632e-11 2.010031715676e-11 -2.301922125859e-11 -6.459881634243e-11 -5.927065629023e-11 -7.345166201010e-11 -1.139879633373e-10 -1.158950212787e-10 -1.209202227461e-10 -1.201463053974e-10 -1.196270014701e-10 -1.116718326799e-10 -7.804406456486e-11 -7.618633554252e-11 -9.479083163112e-11 1.569713855185e-11 -2.429952231649e-12 -1.091369541894e-10 -1.016446566311e-10 -9.073395648099e-11 -2.437825986814e-11 -1.215994948867e-11 2.009323730742e-11 -2.646908475098e-11 -2.634927221074e-11 1.812995745492e-11 1.667474866229e-11 1.307391537244e-11 5.307039428864e-11 3.842142805444e-11 2.699174153621e-11 2.205764244216e-11 7.425508161187e-11 3.882818918096e-11 4.619129090603e-11 1.643428736287e-10 2.074893122804e-10 2.421121780346e-10 -2.344027237935e-11 -2.974912170146e-11 2.379665746139e-12 1.216777292927e-10 1.185809659739e-10 1.521582008592e-10 -5.332584252101e-11 -6.791212938505e-11 -6.243236146344e-11 1.338926432147e-10 1.665634138680e-10 1.973572111002e-10 5.574466464422e-11 1.054962603531e-10 6.550249041087e-11 1.412111604948e-10 1.956936555909e-10 1.457004755560e-10 2.008894104639e-10 2.380035880762e-10 2.353678528601e-10 6.961807627054e-11 3.210044101191e-11 3.656642607824e-11 1.243108057295e-10 1.694323000224e-10 1.099196057706e-10 1.224000200877e-10 1.333739051942e-10 1.765311512314e-10 3.252300638726e-11 4.230769473183e-11 5.992601011049e-11 -2.010896485255e-11 -3.036021681589e-11 1.111566252020e-10 9.598685348060e-11 8.861072261868e-11 6.041302719224e-11 -3.158984341954e-11 1.991006332603e-11 3.445643638756e-11 -1.082268892416e-10 -1.059126576661e-10 -9.616880539522e-11 -9.340185637180e-11 -7.124428153366e-11 2.927262403828e-11 1.482638584146e-10 3.334074870028e-11 7.538363717974e-11 1.848548781043e-10 1.309492377091e-10 9.672803030191e-11 1.735042934159e-10 -4.921215771408e-11 5.172584088966e-11 -1.714312791839e-11 1.284452275624e-10 -3.460252829590e-11 -1.584445544963e-11 9.646206811474e-13 6.659987069936e-11 1.053243108867e-10 4.527833334620e-12 1.524969775385e-11 -1.090662953967e-10 -1.072237050486e-10 -1.197092063846e-10 -4.901979871597e-11 -7.072397668471e-11 -6.343695635342e-11 -1.076799340160e-10 -7.720977103228e-11 -9.731763491668e-11 2.580403751046e-11 5.188947680229e-12 -2.870873930203e-11 -1.280362925600e-10 -1.198402961731e-10 -1.172818458651e-10 -8.415174769942e-11 -6.979281709673e-11 -7.006623042659e-11 3.919541763997e-11 -9.404199797846e-12 3.871927585049e-11 1.142359093364e-10 6.989064499305e-11 9.369090578229e-11 6.346391770758e-11 3.070732920328e-11 2.958485997417e-11 8.816912069511e-11 7.431951666253e-11 6.408130127035e-11 7.515030414128e-11 1.243174989420e-10 1.121853726524e-10 2.346091383713e-10 2.517179249870e-10 1.664944607722e-10 -5.760413104633e-11 -4.928308635874e-11 1.299195239720e-11 4.436367749338e-11 5.915401130717e-11 6.270515834003e-11 -9.323519852850e-11 -9.291121852280e-11 -7.727925449568e-11 9.113724157042e-11 5.532294498874e-11 7.320550093006e-11 -5.559372551432e-11 5.211395900562e-12 -3.958355176237e-12 2.051555657091e-10 1.507179857385e-10 1.879405329100e-10 -7.598222482813e-13 -3.367689108868e-11 2.114044103258e-12 5.204602945089e-11 6.058457455334e-11 2.960964727167e-11 1.821808426339e-10 1.843804558691e-10 1.563861227052e-10 1.919086567357e-10 1.699669663043e-10 1.560912441939e-10 1.697560298349e-10 1.818444173814e-10 5.704719850804e-11 3.799714097568e-11 -5.450978904063e-11 -4.249766326608e-11 1.487722076319e-10 1.159795099947e-10 2.131547114560e-10 2.036573739993e-10 8.465935333652e-11 1.771770137469e-11 -1.566756986193e-11 -1.351464956068e-10 -3.267970230543e-11 -6.651953572024e-11 -9.502744771628e-11 -6.755698340296e-11 -1.122937007053e-10 1.029302953345e-10 6.053317952506e-11 7.105546180136e-12 9.362978771928e-11 5.913681922626e-11 6.598484120454e-11 -4.586815871782e-12 1.746999754498e-10 1.522071911940e-10 4.343713901298e-12 1.787288288108e-10 -2.732906858715e-11 2.592084620404e-10 1.911977230909e-10 5.337769359544e-11 9.013891356001e-12 -2.563011367569e-11 -2.028983148679e-11 -9.718132292814e-11 -9.506070542999e-11 -7.933339085852e-11 -1.049562856656e-10 -7.591324398279e-11 -8.083773926579e-11 -9.523583121722e-11 -8.108635871041e-11 -8.535721062075e-11 -7.070441511910e-11 -8.747120698116e-11 -8.241633505214e-11 -5.795992013881e-11 -8.915706771495e-11 -6.305940645597e-11 8.393997172687e-12 -3.550646989485e-11 1.210852407201e-11 2.644984562318e-11 3.528938153945e-11 1.399401903674e-11 2.553935431193e-11 4.370207088825e-11 6.249558667698e-11 7.068269266056e-11 9.235776768296e-11 9.462189755685e-11 5.186369783436e-11 8.785276651123e-11 7.711698485892e-11 1.057878237230e-10 1.161479864019e-10 5.885196253459e-11 1.949109810785e-10 1.335833573676e-10 1.400666586567e-10 2.354120240902e-10 2.154645118285e-10 2.128592853401e-10 1.076623094242e-10 7.834638189341e-11 4.561084193709e-11 1.635108205517e-11 9.068311687985e-12 -8.352881103804e-12 1.191473417866e-10 1.226746845455e-10 4.403993571551e-11 -9.451104528138e-11 -3.881438326371e-11 -6.276257904234e-11 1.104055293369e-10 8.718341892244e-11 1.231992127191e-10 1.728455985592e-10 1.194337648348e-10 1.184617960547e-10 2.045259683692e-10 1.619507649129e-10 1.638224338086e-10 2.925802516206e-11 2.171523531978e-11 -4.447213864528e-12 8.979669787934e-12 -8.366402745654e-12 -7.918618482041e-12 -1.276453398034e-10 -1.021652417252e-10 -3.227480567145e-11 1.797704034848e-10 1.319631613366e-10 -4.811682918785e-11 -1.589422960831e-12 6.426248588531e-11 8.695202975608e-11 8.148934346078e-11 7.828970814014e-11 -1.065630274271e-11 -6.846899344512e-11 -9.021120932058e-11 -7.905000614236e-11 -9.856749072183e-11 7.909020324849e-11 9.428927570723e-11 9.748595129928e-11 -3.430356590749e-12 2.392358797465e-10 4.216565515439e-11 1.370701566332e-10 2.530670291379e-11 1.304884265600e-10 1.943168282531e-12 2.019817806209e-10 3.239928652333e-11 -1.215937717147e-10 1.587262952247e-10 1.385277818381e-11 8.840784785863e-11 -1.464342595748e-11 -8.401915449603e-11 -3.753734139025e-11 -8.234615031594e-11 -6.379139298953e-11 -6.883219177287e-11 -5.488584796434e-11 -3.584015275857e-11 -4.416810669376e-11 -7.845239774628e-11 -6.235926347780e-11 -8.753572254347e-11 -8.857059188719e-11 -1.152237463729e-10 -1.034486426447e-10 -8.027756894836e-11 -9.241733578952e-11 -8.539499977370e-11 -3.674578188507e-11 -9.373906647045e-11 -3.666043918814e-11 3.850936766012e-11 1.724460950375e-11 9.278589888243e-11 9.127762176980e-11 8.581080216694e-11 9.120100084840e-11 5.196554446156e-11 8.499459891203e-11 5.473123459976e-11 1.232694218209e-10 7.763702217281e-11 7.971362739088e-11 1.082141780878e-10 3.869891511795e-11 7.817052287350e-11 1.316600529265e-10 2.004214375300e-11 -2.615875872877e-11 2.118377010175e-11 -5.005181476167e-11 -3.332247490334e-11 -2.815931185061e-11 -1.707732920642e-11 -3.114209601278e-11 5.097672497520e-11 1.545473106406e-11 -2.892633091245e-12 9.338801939517e-12 -4.164852515238e-11 -4.724631763655e-11 -2.068939680132e-11 -4.224745935274e-11 -4.514692487526e-11 1.404338033304e-10 1.011191838993e-10 1.378681431081e-10 1.586933282988e-10 1.442120958301e-10 1.407530443110e-10 -8.049729191955e-11 -7.571787200416e-11 -3.519428465203e-11 5.089360778693e-11 -3.322081337354e-11 1.101981477622e-10 8.789286187063e-11 1.209831132122e-11 1.240992285545e-11 -6.897661839848e-12 -6.686532298143e-11 7.846460702675e-11 1.756067744922e-11 2.844962881090e-12 -7.765440294555e-11 5.885425230934e-11 7.114462520265e-11 7.105135167374e-11 9.473897240439e-11 -2.793277031118e-11 -2.287111017971e-11 9.761719378193e-11 1.030837050317e-10 -7.670275983614e-11 -7.902890839027e-11 -9.447050876878e-11 -9.440142317935e-11 -4.046456719562e-11 1.134870436437e-10 1.561780844805e-10 1.474926702521e-10 -8.038072848867e-11 2.306119285695e-11 8.950934647702e-11 -2.132095811028e-11 1.263108013943e-10 9.044263626507e-11 -5.828801465410e-12 -3.243350407038e-11 7.350314311198e-11 1.189720802223e-10 9.035219018996e-11 -3.015711166528e-11 -1.146760762160e-11 -9.246557404301e-12 -2.022027790792e-12 -4.195647717419e-12 -8.237610318989e-11 -3.410977242483e-11 -5.798196581790e-11 -6.923510002434e-11 -7.796294014621e-11 -4.844149729149e-11 -1.233219031089e-10 -9.528992012183e-11 -8.773946032966e-11 -1.123864361913e-10 -6.285486846714e-11 -7.900870726284e-11 -7.225305945030e-11 1.491334114216e-11 -7.667231408388e-11 7.380862281794e-11 1.046284958846e-10 1.009148557542e-10 1.203086055439e-10 8.403840277992e-11 1.113664058794e-10 -1.322799617239e-10 -1.607274477959e-10 -1.520078704061e-10 1.461537625348e-10 1.966928977368e-10 9.053922172172e-11 9.508291220345e-11 1.109123947199e-10 1.585887824274e-10 -8.765408784548e-11 -1.818843614132e-10 -1.512154012996e-10 -8.164631403447e-11 -1.254176286931e-10 -1.987301622694e-10 -1.151863284478e-10 -1.224393249669e-10 -1.498335047749e-10 -2.548275245874e-11 -1.300137915260e-11 -3.315688827738e-11 9.223683123706e-12 1.892163519329e-11 8.036223160207e-11 9.876589638547e-11 4.008351945115e-11 5.987360738013e-11 8.542515523083e-11 3.111791059084e-11 9.069877796339e-11 -2.245517673353e-11 -8.731898465282e-11 -6.253465916391e-11 -1.131286696024e-10 -1.364425983944e-10 -1.158735996091e-10 -6.780141936353e-11 -8.485291892590e-11 -1.128381992245e-10 -6.590152560848e-11 -4.399855835158e-11 -3.255584214575e-11 -2.301421833416e-11 -1.273435316542e-10 -7.578532445874e-11 -1.798171814718e-10 8.712662933422e-11 7.465515665152e-11 -1.132778269033e-10 -1.560166409358e-10 1.336630666030e-10 1.041739034219e-10 -9.037274145958e-11 -3.157613067682e-11 -5.503204396271e-11 -4.793427259335e-11 -7.905103961592e-11 -9.712839535118e-11 -1.619134813926e-11 -8.498082171409e-12 9.859992430456e-11 5.139135565308e-11 -1.205848566254e-10 -8.081584863304e-11 -8.109038503071e-11 1.301532898890e-10 1.497106157035e-10 3.984781352540e-11 -1.954953792888e-11 6.833186100286e-11 -1.225834523587e-10 -1.847197563999e-11 1.225217255608e-10 -1.352417330866e-10 -5.048027104833e-11 -7.888168392374e-11 -2.923229904109e-11 1.695284489564e-12 -2.155508140805e-11 -1.272143875099e-11 -8.772927923577e-11 -4.975249403993e-11 -5.543218658249e-11 -5.753710164744e-11 -3.154509508244e-11 -7.316119266896e-12 -4.545847999483e-11 -2.830951615346e-11 -2.427024596921e-11 -4.352316717050e-11 -1.827918711938e-13 -2.107951882966e-11 -1.891236044724e-11 -9.136261657035e-11 1.828159354224e-11 4.195457644731e-11 -2.194821870546e-12 8.030555792108e-11 1.917384106666e-10 1.056502739822e-10 1.311978015980e-10 5.106581872253e-11 1.114356867777e-10 6.674204371318e-11 7.528729336284e-11 6.076600390646e-11 3.609636564260e-11 -1.593195067157e-10 -1.549765781562e-10 -2.501504932497e-10 -2.120412860920e-10 -2.220456863806e-10 -1.905971581191e-10 -1.824766638501e-10 -1.712421510653e-10 -1.705249589899e-10 -1.853679314718e-10 -1.891276759527e-10 -1.367714444937e-10 -1.541411003466e-10 -9.209711239347e-11 -9.082173195895e-11 -2.146144170039e-11 -4.272876092662e-11 -3.191959708701e-11 8.091749727588e-11 1.036987736710e-10 9.835467730633e-11 1.842193106322e-11 -6.699591450668e-12 8.962591071503e-12 2.782737289295e-11 2.272302534936e-11 -6.490819682469e-11 -1.924581424856e-10 -1.369387900359e-10 -1.328955036349e-10 -1.000900634376e-10 -8.822554576101e-11 -8.784719053174e-11 -3.137333520135e-11 -6.494034282039e-11 -5.458937226589e-11 -6.918058322293e-11 -8.071116891103e-11 1.251575955384e-10 5.916083382010e-11 1.372335753427e-11 2.234461663729e-11 -7.127393674635e-11 -2.237341732297e-10 -1.903200112027e-10 -6.155829075167e-11 -5.043758292966e-11 -1.727619324581e-10 -1.561357575830e-10 1.113463086923e-11 -3.818309998785e-11 -7.461621752869e-11 4.751598969612e-12 9.715322809844e-11 5.157656509153e-11 -2.113048346444e-10 1.382899843539e-10 -1.375074308749e-10 -1.581147330096e-10 -1.565183528502e-10 5.730976223580e-11 1.023473025863e-10 -5.933405521104e-11 6.947121945997e-11 -2.318248705945e-10 -2.216933515020e-11 -1.949129706449e-10 -5.638362041077e-11 6.855193055282e-11 3.548915293493e-11 3.183936427587e-11 -1.891255666374e-11 -3.961584918135e-12 1.615337569290e-11 -1.549932028967e-11 2.402968097760e-11 4.892622895367e-12 -1.100412052384e-11 -5.892162806565e-12 -2.606772147677e-11 3.921808921030e-12 1.021551535492e-11 -3.713962315495e-12 -1.554134117406e-11 2.670332422161e-11 2.666670533841e-11 -2.883838681352e-11 -2.376380729205e-11 -1.298337584000e-11 3.839220430490e-11 2.265129988958e-11 1.362485442756e-11 -1.540086510000e-10 -7.393133096463e-11 -2.953244940263e-11 -1.367885840827e-10 -1.348682610904e-10 -5.533468366674e-11 6.130050521372e-11 3.933454610928e-11 4.509074971043e-11 -9.683470764248e-11 -8.130705108032e-11 -6.482153630411e-11 -5.443891446604e-11 -7.595087960970e-11 -8.570121305326e-11 -1.554081488967e-10 -1.218628594784e-10 -9.161142629607e-11 -4.069464665118e-11 -3.796125861210e-11 4.244906979453e-12 6.090620018600e-11 2.216500991717e-11 4.497723779066e-11 2.309526681348e-11 3.498530458390e-12 1.181832320396e-10 4.741688624498e-11 -9.703030190665e-12 4.945445903198e-11 -8.946423246323e-13 1.695839362552e-11 -4.719750640420e-11 -8.395136828187e-11 -7.392086234214e-11 -5.197087827675e-11 -1.198707669584e-11 1.882622931246e-11 -2.238066182034e-11 -3.919887089255e-11 -1.089435500724e-11 2.821815295414e-11 2.805500103065e-11 3.784429453840e-11 4.819672144988e-11 6.497294513750e-11 8.254102250146e-11 1.792497217965e-11 3.691989049551e-11 2.968622678408e-11 -1.100911553037e-10 -9.048802124267e-11 -1.094024412184e-10 -1.040884215435e-10 -4.770674472198e-12 1.297529950960e-11 -1.042681094234e-11 5.870527031796e-12 -2.096821414777e-11 -3.113973288211e-11 -9.751379028257e-12 -2.261288552241e-11 6.297815147077e-11 6.931253263761e-11 2.675739418807e-11 -1.587579425560e-11 -1.034566223200e-10 -1.229141750825e-10 -4.774915542050e-11 -5.758985065450e-11 -7.743227179961e-11 1.036370395969e-10 -5.091350519298e-11 2.484156029029e-11 4.295768720693e-11 3.716726405811e-11 -7.715901827332e-11 -9.519971672144e-11 2.405224650653e-11 -3.429748383963e-11 2.015022293907e-10 -9.562427094369e-12 5.491526215470e-11 -8.131674448535e-11 2.527594278130e-11 -1.179375171982e-11 3.882276673955e-11 -4.687334593988e-11 1.807884465376e-11 1.970954467728e-10 6.027047431093e-12 -4.480634649475e-11 2.870252955065e-11 -7.835673499417e-11 6.086176748207e-11 2.799747655063e-10 -1.535251272395e-11 -2.488854257959e-11 -1.131519649596e-11 -3.187393682325e-11 1.983477451461e-10 -5.123353853094e-11 -3.401008488236e-11 5.290857464583e-11 4.235747172766e-11 -1.136552260806e-11 9.238593929892e-11 2.987673328290e-11 3.389105444732e-11 1.844154018223e-10 1.224779215740e-10 -6.878870039713e-11 -3.158269758344e-11 -5.849832980979e-11 -2.429643294522e-11 -8.751916296130e-11 -1.079662928143e-10 -4.180632759645e-11 4.509522822886e-11 1.023962754811e-10 4.805432872506e-11 1.224606020219e-10 2.685034345986e-11 -1.677104656683e-11 2.836109654417e-11 8.875440763194e-12 4.261754277015e-11 3.738546584697e-11 3.868071853164e-11 6.140830814901e-11 -4.443885094013e-11 -3.396901432979e-11 -5.625904932165e-11 -7.663061055451e-13 2.331657529896e-10 -1.154605197941e-11 7.544756847152e-11 -1.073470486082e-10 3.936472131531e-11 1.305740749538e-10 7.281856161376e-11 6.513042980372e-12 -8.489110189077e-12 -1.055611449320e-11 1.393187330186e-10 1.629309900089e-10 7.768829459950e-11 1.101259841902e-11 2.141462142139e-11 -3.632211406979e-11 3.226153220233e-11 2.109995551141e-11 3.420280132430e-11 1.682081550328e-11 -2.267715153390e-11 -1.007724088619e-10 -9.892988127539e-11 -1.670531384286e-10 -6.710811973495e-11 5.119251908232e-11 1.877843077795e-12 -8.875948496476e-11 -7.481221679959e-11 -2.003353507029e-11 -7.425502312012e-11 -5.081844370046e-11 -9.797943324317e-12 -5.896386990743e-12 1.866525434131e-11 4.958153069427e-11 5.346595165151e-11 8.079647247353e-11 6.165204078593e-11 5.673465845932e-11 8.772776882526e-11 8.562922752042e-11 1.429844948677e-11 3.863890821701e-11 -6.385310485849e-12 -7.520672449511e-11 -3.375313030376e-11 -7.845028348006e-11 -8.603469511371e-12 -3.900030004168e-12 1.149290307799e-11 -1.619659148666e-11 -5.178823270109e-11 7.500356175078e-11 1.168862559549e-10 1.297070433553e-10 1.176758225564e-10 8.353721322541e-11 9.253861174158e-11 6.682375621312e-11 5.438642308267e-11 5.724548969098e-11 7.845874718305e-12 5.532809588568e-12 6.306657044229e-11 1.006998087347e-11 -4.733893687023e-11 -5.429222674734e-11 -3.142914976220e-11 2.342537956767e-11 -2.966649058814e-11 -4.555518175746e-11 -4.058651864750e-11 -6.608949725943e-11 -5.521863733705e-11 -6.563719175183e-11 -7.098173234852e-11 -5.857667578168e-11 -6.175682422441e-11 -5.102493333693e-11 -6.075398494472e-11 -6.177358356738e-11 7.720311193263e-11 8.789047790581e-11 3.922891349327e-11 8.627472067358e-11 -8.086361549982e-12 2.661863163338e-11 -6.381838959200e-12 1.213888662078e-11 1.710945163758e-10 1.787110834570e-10 1.937267043696e-10 1.816912940178e-10 9.322575723544e-11 8.639064229875e-11 6.932604891628e-11 5.858615093075e-11 2.224510432911e-10 1.732503703955e-10 9.869437986230e-11 -4.721570267768e-11 -2.364082872124e-11 2.139363372990e-10 2.192839220282e-10 2.370430694380e-10 5.409061827328e-12 2.007914855751e-11 2.679533872397e-11 4.919296946337e-11 -6.496813915839e-11 8.921891184466e-13 -4.850811136414e-11 -6.053496874776e-11 -3.978306022527e-11 -3.734676752876e-11 -1.430465005707e-11 3.502240067998e-11 2.932330783354e-11 1.742346548950e-11 9.816733694122e-12 1.043890078545e-11 -2.126485787186e-11 -7.300069395107e-12 1.443843148882e-11 6.737097018499e-12 3.938773495366e-11 2.782523335888e-11 2.283083181421e-11 1.510465946856e-11 2.594078391583e-10 1.637114752789e-10 3.213188641423e-10 2.589180886836e-10 1.956528939694e-10 -1.197154611590e-11 -2.441892881889e-11 5.291351243129e-11 5.720427630933e-11 3.163108900601e-11 1.260236368748e-11 4.496310861335e-11 8.302341272514e-12 3.312190224747e-11 6.401949443681e-11 -1.772263755745e-11 1.876238859734e-11 6.259973079183e-12 -3.962857895567e-11 -5.503376156845e-11 -7.593965344741e-11 9.916002152508e-11 1.352999039195e-10 5.005450096090e-11 -6.795330617648e-12 -6.331307460779e-12 1.041314917793e-10 2.844764961790e-12 9.353344987905e-11 1.026959443252e-10 4.528422372854e-11 -1.770049347798e-11 3.461427222325e-11 -4.382033753147e-11 1.397589152878e-10 -1.801716383629e-11 -3.478671031787e-11 -4.959598760867e-11 3.543636808786e-11 4.609592086291e-11 1.741918734544e-11 1.039298684849e-11 3.354132603895e-11 -1.759843833160e-11 1.556433843209e-11 -6.329811963931e-11 7.543013877341e-11 4.801033015825e-11 5.832459597490e-11 3.305005347014e-11 1.071541101541e-11 3.723239810381e-11 -6.121566681037e-11 5.560821270807e-11 9.959645473314e-12 -3.597516289599e-11 -1.496088767918e-11 -2.965454406461e-11 5.698673631823e-11 5.208946151992e-11 1.987461212470e-11 6.984036282693e-11 4.781070799449e-11 -1.019381560810e-10 -2.857270147676e-11 -2.713193050944e-12 -9.113911331272e-11 -1.195605782949e-10 1.665290736254e-10 1.915528957482e-10 1.602594923922e-10 1.894855004963e-12 3.496722388637e-11 1.324568119876e-10 2.113613190718e-11 2.030165906745e-10 2.777170060669e-10 2.636553866940e-10 7.299151317363e-11 1.204179168411e-10 9.572899605176e-11 5.691661725260e-11 2.816236622625e-11 3.437163388226e-11 3.167243883250e-12 6.403137109799e-12 5.057571933350e-11 3.568738574594e-12 4.104957563103e-11 1.217948648595e-10 2.138672672263e-10 5.933732845353e-11 3.266006138376e-11 6.954868790432e-11 7.146042265775e-11 2.023765648118e-10 -6.473168483198e-11 -4.097909574849e-11 4.353419327383e-11 1.620740034710e-11 -1.275088979353e-10 -1.927898357966e-10 -5.023113636343e-11 -5.323758458486e-11 4.680619820742e-12 2.092775546962e-11 5.801826501505e-11 1.242449989561e-11 7.065554994614e-11 6.908559825880e-11 -1.967378545654e-11 -3.521585697490e-11 3.180893287484e-11 6.750518744975e-11 1.586137550295e-10 1.492684310574e-10 1.392198396713e-10 6.237339886075e-11 6.924900442028e-11 -1.102372098810e-10 -1.254239820168e-12 -7.874218250553e-11 -9.039259855310e-11 -1.980321164988e-11 8.312476087490e-11 4.608022239246e-11 8.098778776928e-11 2.971516665983e-11 4.096215678632e-11 4.122209564819e-11 1.376520319584e-11 1.449060919206e-11 1.122882739401e-12 7.284741046426e-11 1.108968004593e-10 8.346728582941e-11 2.586974572639e-11 -3.917320688297e-12 2.044368606492e-11 2.983861059708e-11 1.482035413084e-11 7.253373226533e-11 8.282257189599e-11 -4.499233644432e-11 -6.614273032636e-12 2.849692742582e-11 5.434489467647e-12 8.654887642794e-12 3.988978668501e-11 4.504691083885e-12 1.448888597231e-11 1.040160131692e-10 -1.042860372710e-12 -4.729641447006e-12 2.547578096626e-11 3.040589328350e-11 2.437135508266e-11 6.251149027977e-11 1.878565333448e-10 3.087130312669e-11 6.961540650943e-11 1.892187713481e-11 5.049226725799e-11 3.009998401062e-11 -1.041422498532e-11 3.998601076558e-11 1.380525177199e-10 1.037986803774e-10 9.901312782943e-11 1.312243568396e-10 2.584260145408e-11 4.207427473734e-11 7.660776434511e-11 -3.130331448697e-11 -1.534083908083e-11 -4.727415974274e-11 1.954584732396e-10 3.772132189676e-11 -6.127989817214e-11 -5.960232574233e-12 6.618168754323e-11 8.214133646438e-11 4.779168573736e-11 -1.870640423868e-11 1.503662189517e-11 1.491001014722e-11 3.594441396725e-11 1.022877544996e-10 1.350671403425e-11 -4.103258759847e-11 -1.058739703051e-11 4.883323635509e-11 1.022030611786e-10 -1.762366542728e-11 1.591380863065e-11 7.704069410569e-11 1.691787094891e-11 -3.873720822752e-11 1.452759765371e-10 2.177893861204e-10 2.237282424468e-11 1.537094118075e-10 -5.471948832030e-11 6.467450639809e-11 1.219990129528e-10 2.220081153942e-10 -9.006696125314e-11 -3.215881433039e-11 5.694733010710e-12 -3.159405806274e-12 6.370172383653e-12 5.335611768309e-11 2.391498803339e-11 3.833132306933e-12 4.840299700400e-11 5.896069587424e-11 1.084330487411e-11 2.247584189498e-11 -5.030456473910e-13 1.337812078379e-11 3.379412886922e-11 2.540127944155e-11 -8.057561456403e-11 8.613055346665e-12 1.863897522752e-11 -6.028539872728e-11 7.694629318786e-11 -1.769572347932e-11 -3.790432710884e-11 8.163808409520e-11 1.522818940536e-11 2.877529582885e-11 6.605525848524e-12 5.352721194164e-11 1.317501765960e-10 -1.473900497455e-11 5.840598408352e-11 2.996012402288e-11 4.207298612873e-11 6.630393903956e-11 2.100831871024e-11 3.024919840526e-11 2.026250017640e-11 8.113875475726e-11 -9.734910183101e-11 -2.697253867061e-11 1.947676565095e-10 -6.008408501637e-11 -3.745648390218e-11 1.519855813107e-10 1.604488847918e-11 -3.375448296162e-11 2.812977833402e-11 3.372210362032e-11 6.084788224315e-11 5.369847390368e-11 6.747405871156e-11 -1.293029971289e-11 -2.049410320268e-11 -5.391550542731e-11 -7.006191500529e-12 2.274247571066e-11 -1.142569019881e-11 2.148238206742e-11 1.504331039760e-11 -1.511252729584e-11 5.112213394444e-11 1.124869049253e-10 -5.441053033475e-11 -8.371566063344e-12 7.941232233328e-11 -8.185724702650e-11 -6.271334226621e-11 -4.281288286852e-12 -4.815894325399e-11 3.355159214694e-11 -2.554718137703e-11 4.370588870356e-11 -1.776611919244e-11 -2.603117830521e-11 -2.409811998387e-11 6.306624688444e-11 3.699960032365e-11 3.068595509107e-11 4.171660182664e-11 5.223381620484e-12 -1.765939945772e-10 4.888635568405e-11 -2.958736490121e-11 3.529919658079e-11 5.426426970373e-11 -1.606231536666e-11 2.308401398273e-11 -3.231648289537e-11 2.226154178137e-11 -8.720580796434e-11 1.000754323987e-11 -7.091450972448e-11 3.858752703941e-11 -1.276275425043e-11 -3.229088405086e-11 5.749977325872e-11 -8.814746290742e-11 -5.118039426872e-11 6.398626542532e-11 1.869158670022e-11 -4.678301757438e-11 5.160900694792e-11 -2.793606336566e-11 -7.645851308850e-11 1.443151070868e-10 1.763396528769e-10 1.021399362152e-10 -3.470852012917e-11 1.209532409126e-10 -3.642888423883e-12 1.273898720059e-10 2.320541682710e-11 9.662313333695e-11 1.680917838576e-10 4.639906808326e-11 -4.932885325413e-11 1.391441837712e-11 2.543537139860e-10 2.376321292071e-10 -1.017766870795e-11 1.228131259709e-10 -8.211430778773e-11 2.624117672769e-10 1.154438895942e-11 3.609668237793e-10 -9.464190328545e-11 8.611169860883e-11 1.603024135330e-11 2.309915885040e-10 -1.057962038925e-10 2.912509115252e-10 1.086628086247e-10 -1.446809022719e-11 1.524841482781e-10 1.810356571491e-10 1.466574132056e-10 1.530336282217e-10 -1.838932480628e-10 3.375021330575e-10 1.513346908478e-10 1.091958867238e-11 -1.917579785304e-11 3.972048168506e-11 3.988631267202e-12 3.186614150836e-10 -9.103364380121e-11 3.637214384346e-10 4.880326320820e-12 -1.671556128521e-10 1.473304525354e-11 4.424950358114e-11 8.333063854377e-11 -1.156544134382e-10 8.367348091351e-11 7.247073390788e-11 -1.126111048552e-10 -4.867004901508e-11 3.933403519987e-10 -1.232047959005e-10 -7.319323811988e-11 2.345308825649e-10 2.326112484493e-11 7.623652749505e-11 2.157511503071e-10 3.493537313951e-10 -6.130445530941e-11 1.851260994083e-10 6.560503256132e-11 1.751017596981e-10 2.054442896716e-10 -2.141373511023e-10 7.163259174631e-13 2.579450660163e-11 1.534294440186e-10 -6.054548242505e-11 2.401380360075e-10 3.230833369715e-10 1.703111224304e-10 4.867433942227e-11 4.455956465317e-11 2.421852276115e-10 -2.026406001436e-11 7.011803855328e-12 1.077629501045e-10 -2.054276558628e-10 4.502826756544e-10 -3.141056426551e-11 -1.170983570928e-11 -1.674641039351e-11 1.888741650059e-10 1.254004942366e-10 -1.421254091607e-10 -2.951076276043e-11 9.021935919453e-11 2.221315494518e-10 1.340904663739e-11 3.206900066964e-10 2.773504533847e-11 4.608632424594e-11 -2.744468187266e-11 3.993461428097e-11 -3.285652907336e-11 1.780896319267e-10 -6.741657423842e-11 2.946134090001e-10 2.180582709547e-10 4.557797042557e-11 -3.399903915181e-12 3.329938867243e-10 -6.104836676994e-11 2.659956920099e-10 4.108332307559e-11 1.523910651346e-10 1.768627788287e-10 -6.689146939028e-11 -2.738831247964e-13 4.276989235165e-10 8.104833809836e-11 2.888971874082e-10 2.038569541829e-10 3.005265196958e-11 -1.972893516241e-11 5.200855800746e-12 -8.445914169979e-11 -1.042345665489e-10 -4.511930017578e-11 6.881184061513e-12 1.688775672718e-11 -5.035932153237e-11 1.577331365283e-10 -3.445225170519e-11 1.845329174213e-10 2.856578209487e-11 -5.561139290884e-11 -1.117968711408e-12 1.446973892430e-11 -7.854234074379e-12 1.755656653947e-10 5.438999109746e-11 7.830189211661e-11 -8.019010371771e-11 -3.821498908009e-11 -1.677345594897e-10 3.162265468079e-10 -1.353450530743e-11 3.995399208190e-11 1.918863474763e-10 3.402614531932e-10 4.346427314120e-10 1.122795120182e-10 2.066498189832e-11 9.265421467633e-11 -1.895775610880e-10 3.990334726189e-10 8.272327708239e-11 2.021486939618e-11 2.551704870630e-10 4.062625573380e-11 -6.123229986472e-12 -2.352585867873e-10 2.169027023766e-10 -5.378672278906e-11 8.261979113551e-11 2.225250697974e-10 1.078092851732e-10 1.813516596193e-10 -1.376435779500e-10 8.819047622681e-11 -2.702836187167e-10 4.342038178773e-10 -4.286077014103e-11 -1.179157111986e-10 3.146220025762e-10 6.322962301673e-11 1.396520620423e-10 4.971830101681e-11 -4.792771089338e-11 2.773468823851e-10 -4.112166652555e-12 -8.757542472984e-11 -1.242668893436e-10 1.236620245015e-10 1.334873396248e-10 2.760371958515e-10 1.001069386142e-10 2.677954142749e-10 9.985378177755e-11 2.692433069716e-10 3.727214557935e-10 -1.825018794038e-10 -1.731513497420e-11 4.530279252213e-10 6.455895032974e-11 -7.195671699548e-11 -3.874561748762e-11 2.724287053733e-11 7.031608490883e-11 3.332130575481e-11 1.371900270362e-11 5.175437684861e-11 -7.631813391588e-11 3.578639968191e-10 2.299053353211e-10 5.584708409854e-11 3.377129452726e-11 9.304056999884e-11 -2.467605606558e-11 5.240422525347e-10 5.130413601185e-10 2.852785195410e-10 7.911093754252e-11 -1.202991520386e-10 -2.775882067537e-11 2.000256872061e-10 1.190980111130e-10 2.654362260684e-11 5.063347915902e-11 -1.306767692218e-10 1.337683578642e-10 1.492385268009e-10 -3.075956899071e-11 4.453277969294e-11 2.499151473647e-10 5.740768467354e-11 2.057975800525e-10 -5.713003716530e-11 1.910063003558e-11 8.146088180753e-11 1.911860358956e-10 -5.537448302087e-12 -2.167061149487e-12 7.343655322586e-11 1.511578667185e-10 -6.031326374771e-11 -1.360014406542e-10 2.067520633758e-10 6.163950456890e-12 2.630183226498e-10 1.419254620782e-10 2.263990260293e-10 -1.191988183680e-10 4.913454719829e-10 6.052132213294e-12 3.773051602727e-10 6.801944222229e-11 9.056929634976e-11 -5.367554434459e-11 7.300378278965e-11 2.602495155134e-10 2.321499626460e-10 9.901383613698e-11 3.908469419733e-10 2.804063722077e-11 4.928973869726e-11 7.573298925460e-11 8.794451327568e-11 1.284467548910e-10 1.419575541431e-10 2.051782250482e-10 8.790270876599e-11 6.104767019003e-12 1.248147160123e-10 6.331626375410e-11 2.017867787287e-10 1.626960222624e-11 2.164690105699e-10 2.476019057774e-11 
        </DataArray>
        <DataArray type="Float64" Name="STRAIN_YZ" format="ascii">
          4.413328441126e-12 6.852049888132e-12 2.167030339946e-11 -6.001240255124e-12 4.184897567372e-11 4.263235019638e-11 7.259467030208e-11 6.440786792794e-11 3.873325803612e-11 -6.725151130427e-11 -2.369783690269e-11 -7.943015579892e-12 -1.920575619837e-11 1.733292194186e-11 6.930568158818e-12 3.280700137302e-11 -4.547498434395e-12 3.149427651542e-11 4.363215734895e-12 6.157176206004e-11 3.173683067243e-12 2.898015305739e-12 -6.255919393627e-12 1.551585935832e-11 3.111563032695e-11 -7.006570381755e-12 -6.698562504946e-12 8.011330813150e-11 6.730895375102e-11 -1.476145107961e-11 1.551436220041e-11 6.792049561665e-14 3.431893631161e-11 7.252271150513e-12 3.559765624788e-11 6.170226176668e-13 4.552381121086e-11 3.933586392088e-11 1.134041630856e-11 2.272267625381e-11 3.064854593591e-11 1.514323193751e-11 -7.311851355866e-12 -2.999930180961e-11 3.591833560640e-11 -8.134028173234e-12 -8.245899875819e-12 2.062677687074e-11 2.901550091314e-11 3.308599842306e-11 -1.290173905211e-11 5.440709785910e-11 3.441160108600e-11 -4.562939493839e-12 8.424784889135e-11 1.400700299645e-11 5.109028162605e-11 -4.825478822740e-11 6.748079294825e-12 3.878351290174e-11 -2.305567016068e-11 9.390846568733e-11 3.690384866382e-11 3.958833415406e-11 -1.839838466762e-13 4.985354211226e-11 6.040312301262e-11 9.003348992268e-13 2.577149828901e-11 -3.370654153648e-11 -4.355063763321e-11 9.762452709653e-13 -4.684453317148e-11 -2.572985299936e-11 2.553273583591e-11 4.840867199490e-11 4.434292598908e-11 4.818925322438e-11 2.801641869887e-11 4.246084386872e-12 -8.698932546514e-12 -1.992192714119e-11 2.239209495735e-11 9.423105789380e-11 5.979799652406e-11 3.109461900513e-11 1.253709455406e-11 -2.250432252090e-11 -4.397645841231e-11 1.336662141287e-11 5.992116875346e-11 -1.416821174929e-11 2.398056820031e-11 7.183524608489e-13 1.146863308892e-11 -5.133053510598e-11 -2.853792610532e-12 6.126683843896e-13 3.439988301928e-11 5.197937320729e-11 5.974342655841e-11 1.171094120322e-11 -1.391237796102e-11 1.008110880653e-10 1.384974274733e-10 2.185801027381e-12 2.917165236223e-12 -1.251902929867e-12 -4.065114667209e-11 1.671026091987e-12 -1.523311208076e-12 -1.026026615863e-12 -7.908874758156e-11 -1.271196935331e-11 -6.802061105849e-11 -1.167238001347e-10 -6.125667192940e-11 -2.272793157380e-11 1.123293375001e-11 1.555279956547e-11 3.909707154514e-11 -3.310718572538e-12 -1.065375799854e-11 -2.285816639232e-11 -9.783242300375e-11 -5.261383358599e-11 -1.012786778736e-10 -6.480081954699e-11 -1.369851144530e-10 -5.136327225038e-12 -9.871535645480e-14 3.007994569854e-12 -1.291032608570e-10 -8.114715968404e-11 -4.500917605563e-11 -7.797584373362e-11 -1.402927422039e-10 -1.049505276728e-10 2.853749325517e-12 1.272804204864e-11 4.364651919915e-12 3.286553753689e-11 7.001745000847e-12 4.929020947315e-11 -1.118454360850e-10 -9.115524675025e-11 -1.028473692409e-10 9.252218583261e-12 1.535139421182e-11 -2.133560620270e-11 -3.706661845249e-12 1.648320812366e-12 -2.201039014316e-11 -5.559786150412e-11 -7.485552052478e-11 -4.174149465338e-11 -3.965711878893e-11 -6.082735341988e-11 -3.665986508321e-11 -4.639054060375e-11 -9.969980503205e-11 2.732309607276e-12 -1.127833833709e-11 -1.571465281739e-10 -9.365273210671e-11 -2.086531853534e-10 1.650177865658e-11 3.894744497813e-11 3.620697731252e-11 2.093292740444e-11 -1.835666668403e-10 -2.019874223332e-10 1.544635161683e-11 3.642925124110e-12 -8.674461212126e-11 -8.303094990349e-11 -4.188823400781e-11 -7.826951611045e-11 2.457215763900e-11 1.681955258664e-11 2.685971598042e-11 4.316514134620e-12 1.054684059091e-12 -3.705103168987e-11 -2.894514402569e-11 -1.144834587972e-10 -7.260005706962e-11 1.411853596606e-12 4.567185407762e-12 -5.304450751617e-11 -8.566520686536e-11 -1.637314987521e-11 -1.904407949516e-10 -2.074636858912e-10 1.969548678518e-11 5.607209939237e-12 2.726947920575e-11 2.625223180560e-12 -3.418229108398e-11 -1.157689402302e-10 4.920112543555e-12 -2.962952886642e-11 -8.634022876716e-12 1.170427506361e-14 -1.635491317503e-11 -1.105385995354e-11 -2.196876856501e-11 -1.275911801953e-10 -1.885458115092e-10 -1.023450412529e-11 -3.783675885746e-12 -6.438392612783e-11 -1.173601045176e-11 -1.848811840444e-11 -3.621876722102e-11 -3.814965600549e-11 2.409573453831e-11 -7.047192382599e-11 1.054722268634e-11 5.714276621666e-12 -6.349317560989e-12 -6.892642537937e-12 -4.459112225898e-11 -9.848647749565e-11 -7.462193225896e-11 4.135970442743e-11 6.996067955642e-11 6.939614247831e-11 7.684971676839e-11 -2.857514953463e-11 9.852943602066e-11 -9.724389374391e-11 -1.016383594584e-10 -1.033478794803e-10 3.273519352541e-11 -8.294300142542e-12 2.976338605553e-11 9.280582576359e-12 1.348674326153e-11 -4.786025497538e-11 3.449214659343e-11 2.989614231088e-11 2.264737293190e-11 1.196458454832e-11 2.044861339718e-11 -1.789821387164e-11 -5.992155322279e-11 -1.925768767543e-11 -4.934518361051e-11 2.394689186289e-11 6.761339615542e-11 3.051395880040e-11 2.005720527582e-10 1.881129854028e-10 2.880243548005e-10 -1.049161097686e-10 -4.892499113812e-11 -3.616987787478e-11 -2.526276847794e-12 -1.451102096556e-11 -3.693160808999e-11 1.207205302603e-11 1.737732910403e-11 -1.673997080999e-11 1.925122647835e-10 1.183094960252e-10 7.336428643409e-11 -1.383025288885e-10 -1.248712342837e-10 -8.070990707362e-11 6.015651246091e-11 3.052076010905e-11 3.976768178721e-11 1.300459425805e-11 -5.791736607090e-11 -1.726875937530e-11 -5.011922062417e-11 -6.408684650669e-11 2.236439908551e-10 1.379456534533e-10 1.484776925252e-10 -4.141256866871e-11 -7.112277621140e-11 -2.511386026664e-11 -5.244571905185e-11 -3.575277792444e-11 -5.968735027712e-13 -2.511697022039e-11 1.951158600938e-11 3.693004331422e-10 3.017492110491e-10 2.048070368717e-10 1.473960193193e-10 1.185865510968e-10 1.208285537917e-10 1.817495850724e-11 -2.392370044111e-11 3.851333958735e-11 3.464939331548e-11 3.214534591805e-10 1.846092810593e-10 1.914987894820e-10 8.718108407500e-11 9.843742824462e-11 1.115407289210e-10 4.423157394279e-11 8.911590620534e-11 7.685950243825e-11 8.659572049050e-11 6.316641347667e-11 3.459174100229e-11 5.531659439369e-11 7.450816065244e-11 1.095886580845e-10 3.480564927827e-11 2.651030847391e-11 6.325508245995e-11 7.053555922454e-11 5.636310635850e-11 5.829048535811e-11 2.116695496518e-11 3.205382518098e-12 -9.522187653539e-12 9.024396458459e-12 -5.726855591196e-11 -6.656681297487e-11 -3.171314866528e-11 1.261917040474e-11 -2.216735735944e-11 -1.919027711623e-11 4.462414647172e-11 3.147490166727e-12 5.830869997870e-12 -1.866621950324e-11 1.251152916682e-11 -7.512967569212e-11 6.155533548158e-12 1.226432796887e-11 -5.585514791524e-11 3.118655164481e-11 6.591198691442e-11 1.894858689443e-11 4.645224399724e-12 2.639028951242e-12 -1.285409329613e-11 4.400467788189e-11 -7.253787775880e-12 4.748092484055e-11 1.836144027983e-11 -2.587068048485e-11 1.721362006928e-11 1.387162055019e-10 1.197008765256e-10 1.832221803386e-10 1.526870020245e-10 2.416442491476e-10 -3.006525586658e-11 -6.011855311532e-11 2.473981214118e-11 1.196538134777e-10 1.085528404610e-10 5.701074258721e-11 6.967923016372e-11 1.994250185439e-11 -2.522204920324e-12 2.635067529484e-11 -2.951831823161e-11 3.305652052724e-11 -3.269348696156e-11 -1.079560448559e-11 2.582091889839e-11 2.615268480654e-11 -1.650468756649e-11 -3.168413358909e-11 3.142969722010e-11 4.327253840135e-11 3.435780248434e-11 4.046995131048e-11 4.159605879140e-11 5.693353699677e-11 4.668364051450e-11 4.563213616781e-11 5.592165561863e-11 4.102412862000e-11 5.242256696440e-11 6.107772741166e-11 7.116122793024e-11 7.004770685607e-11 3.726625276781e-11 1.081865340947e-10 7.835410059056e-11 6.376209394822e-11 -6.228382744451e-11 -1.022167052771e-10 -4.163736157255e-11 6.068627294359e-11 1.037367856809e-10 8.544766188256e-11 -4.091690364228e-11 -3.982786880554e-12 1.233190939411e-11 3.440443213885e-11 1.118411049416e-10 8.756895969348e-11 1.569246711500e-10 2.625147017114e-10 2.156173658744e-10 2.100889927882e-10 1.947148661859e-10 7.218921930137e-12 3.099435553408e-11 2.981565086452e-11 2.966594454718e-11 3.376092529815e-11 2.245420798082e-11 -3.715758218090e-11 3.136150789214e-11 8.635875038803e-11 6.977540557330e-11 5.186225397020e-11 3.860141064215e-11 7.155273298315e-11 3.371293175181e-11 3.989486692391e-13 -6.569970941705e-11 1.200766039024e-10 6.732502463932e-11 1.348404342465e-11 2.579142978289e-11 -5.016978129232e-11 -9.323108775638e-12 -4.441528136670e-11 8.927279676491e-12 -4.275067763902e-11 -6.861634729553e-11 -7.186202889023e-13 7.118111482185e-11 -5.204535606935e-12 -1.674463602151e-11 1.307854827331e-10 9.002764311852e-11 1.031539332590e-10 6.663749541422e-11 7.066565904690e-11 5.147600380838e-11 4.343874608972e-11 4.949001675216e-11 5.001549478398e-11 1.043456706529e-10 4.486465544174e-11 5.053688842790e-11 1.944115861226e-11 -1.751839426320e-11 5.836661818512e-11 7.196623272986e-11 5.689993518340e-11 6.725598531332e-11 8.069142008639e-11 5.932019978490e-11 7.578199294360e-11 4.394745199626e-11 -9.217580753518e-12 -1.605917122324e-11 -5.849528297632e-11 6.711313160027e-11 -1.414621740060e-11 -3.981590766001e-11 1.050549334121e-11 -1.193305480471e-11 2.309419915141e-11 1.110691811960e-11 1.597035956648e-11 8.842807630344e-12 -1.522397092467e-11 1.748846801921e-11 8.255363167334e-11 8.761985812826e-11 9.890049541408e-11 2.310194482080e-11 4.102234076158e-11 3.863714730101e-11 -4.744018481002e-11 -8.706934160931e-11 -1.018407152590e-10 3.299002659676e-11 -1.806048886832e-11 3.454428077499e-11 8.208028873189e-11 5.007977551171e-11 4.664161951989e-11 3.890077397937e-11 3.416739696054e-11 3.901942818636e-11 3.339046626813e-11 3.182292773119e-11 2.411716794032e-11 2.132105549293e-11 1.848720618570e-10 1.043148474253e-10 1.253514985887e-10 1.212513183029e-10 1.003285898438e-10 9.763650789420e-11 1.891856458737e-11 -5.844238818686e-11 8.144094267605e-12 5.881730498646e-11 1.029507976162e-10 9.667109522030e-11 7.250646032649e-11 7.076074187158e-11 2.987591776618e-11 -5.342326550847e-11 -4.602477083019e-11 -7.986585335905e-11 -4.586926508290e-11 7.545786766966e-11 6.371738359651e-11 5.697296632427e-11 1.097457729043e-11 1.522759797262e-11 1.859721260091e-11 -2.470971879077e-12 1.742173981997e-11 -4.812797075747e-11 -2.376239205886e-11 -1.419158155598e-11 6.182358640423e-11 -6.156184524600e-11 -7.577536548088e-11 -1.967913563587e-11 9.397408226839e-11 1.059751108211e-10 2.099116092174e-12 1.221113498142e-11 -1.627943757807e-11 1.211364202126e-11 1.218002599965e-10 2.068809521209e-10 1.014726288463e-10 9.922134942368e-11 2.583358353725e-11 -2.303478831470e-11 9.326919273442e-12 -9.416547849451e-11 -7.379699939063e-11 3.034584597494e-11 1.379552017327e-11 1.888667768548e-11 6.058105132273e-11 4.069218576825e-11 1.455293327614e-11 6.301198305089e-11 5.622107107480e-11 5.721206223618e-12 4.358859006830e-11 4.123738257695e-11 3.663830401117e-11 6.349610433223e-11 3.337572470343e-10 2.591866365628e-10 3.507261694610e-10 3.205462210006e-11 1.060289110361e-11 3.586729901558e-11 6.683263009282e-11 4.675643221121e-11 3.736648975265e-11 1.339388238367e-11 4.288444816272e-11 2.438832401446e-11 2.917021249206e-11 4.064941999426e-11 3.620310128875e-11 1.298585959112e-11 -3.263736206930e-11 1.803164025593e-11 -3.637684383559e-11 -1.141723146020e-10 -7.969436040270e-11 -1.380456383530e-10 -1.063324779319e-10 -1.440671812653e-11 -2.209936349947e-11 -2.190903574537e-10 -1.347430346620e-10 -1.904034404508e-10 -1.771498743264e-10 -3.260265571647e-11 -5.916768917020e-11 -5.241342628289e-11 -1.352926657424e-11 -7.320203152472e-12 2.548405961702e-12 1.341973753941e-11 2.524900882629e-11 -2.225924483074e-11 -1.137526735250e-10 -7.748495567684e-11 -5.984606936625e-11 -9.162303254640e-11 -7.115550493793e-11 1.618994201337e-11 -3.046714528524e-11 -5.358798306558e-11 -2.182627726868e-11 -1.216747839636e-11 -1.298217018711e-11 3.108581171537e-11 1.248514657751e-10 1.405974964635e-10 -2.353155662920e-11 2.271632826892e-11 3.753988024338e-11 8.131805806599e-12 2.296707304177e-11 -1.797882477815e-11 -2.473953169221e-11 -6.090042659982e-11 6.865184587300e-12 1.869654035610e-11 2.506475932523e-11 9.757701365659e-11 1.005286326539e-10 6.520831594109e-11 6.897366605091e-11 4.655565368860e-11 -9.929613294796e-12 1.738194865819e-11 -1.348183657682e-11 -1.688751320677e-12 4.238599230239e-11 2.422965781282e-11 -8.196095181100e-11 -3.031286076461e-11 5.882952987062e-11 4.749129460753e-11 1.250591871140e-10 -3.273956787260e-13 2.878430093381e-11 -4.860891465197e-11 -5.145818581626e-11 5.331394692884e-11 4.554953791293e-11 4.964994882965e-11 4.614908958932e-11 2.706310873985e-10 3.588144050709e-10 -2.718684871309e-11 -3.907130261688e-12 -1.961505510245e-11 7.651134894558e-11 4.456394743964e-11 4.359538050653e-11 1.942379650736e-11 1.293600503077e-11 -2.095961909529e-11 -4.507969195777e-11 -7.882043968610e-11 1.645641310051e-10 7.057041009143e-11 1.902665647352e-11 5.796779039852e-11 4.318509604581e-11 4.394723589941e-11 2.375147254044e-10 5.045444479339e-11 -1.573301941336e-11 -6.121603432496e-11 -1.166093107009e-12 1.259867349003e-10 -6.351229865433e-12 -6.653139075227e-11 2.682146903304e-11 -7.177556437653e-11 -1.111543334444e-10 -1.410012510432e-10 6.848725411273e-11 -7.211261633570e-12 4.508939990470e-11 6.721580621060e-11 9.300705466663e-11 5.751870989102e-11 1.122249489622e-10 -6.806140878875e-11 3.169947929434e-11 -1.039377687511e-10 1.043515647820e-10 2.619488817945e-11 2.719961836367e-11 -7.297052759835e-11 -8.156736069582e-11 2.159583449568e-11 3.593651529421e-11 -5.911451375371e-11 1.511048868795e-10 -2.375606727393e-11 3.997194479806e-10 8.009187767571e-11 4.580634211265e-11 3.030278010579e-11 -6.896641200835e-11 -5.306829773076e-13 4.445045986021e-11 1.047462520573e-10 1.099047686426e-10 -3.405424379987e-12 7.596416351854e-11 3.594063207130e-11 -4.104328005107e-11 -3.103895428943e-11 5.932207873035e-12 1.516816334844e-11 1.086844949975e-10 1.477793625318e-10 3.202013984906e-11 5.158104124354e-11 1.747347908726e-11 -7.453611088255e-11 -9.030113271598e-11 -3.574941445303e-11 -4.872250772686e-11 -4.383693477340e-11 5.285014305801e-11 5.509409873484e-11 -1.182792708057e-11 1.023572531503e-10 8.374828625368e-11 -9.710545012763e-12 5.803717789712e-11 4.509190827871e-11 3.654819291177e-11 7.360769068014e-11 -2.430619181358e-12 -5.087784365643e-11 1.734151410651e-10 2.368816938190e-10 1.297148190726e-11 -7.934957378664e-12 -8.166661828850e-11 -1.255602726211e-10 2.802441462123e-11 1.500257613536e-10 6.135608554583e-11 5.471410376272e-11 -4.576884547718e-11 -6.193580724967e-11 1.561970896953e-11 -2.136312105226e-12 6.382849424181e-11 4.691578012811e-11 -2.061148712644e-12 7.351138988258e-11 1.187119011201e-10 5.608540228499e-11 -1.734897341219e-11 -1.571052561771e-12 9.210401252444e-11 -3.787213763082e-11 -1.434880914173e-11 1.543658781409e-11 1.397512146515e-11 -2.987073148516e-11 5.090382645927e-11 1.966664218149e-11 -2.581720657208e-11 3.067157976790e-11 5.811120189570e-12 -4.876019726874e-12 3.343382481555e-11 2.136268748125e-10 6.390422137133e-11 1.141791614237e-10 9.225736805005e-11 -8.155197105004e-12 2.958801116502e-11 4.499762866552e-11 5.243927359040e-11 1.093827793893e-10 3.103233705522e-11 2.159143430175e-11 4.755664122714e-11 -5.954370697517e-11 1.009013785520e-10 -6.058025976660e-11 6.174481964489e-11 3.406423217798e-10 3.598082085688e-10 5.958558829600e-12 1.910074650530e-11 -5.015687394014e-11 2.765077835631e-11 7.699734829656e-11 -7.716483240867e-11 3.236309135031e-10 9.630728011953e-11 1.312928932240e-11 -4.134557207598e-12 9.426725731209e-11 3.900101711492e-11 4.874040146851e-11 1.983226010200e-10 -4.661414155905e-11 -5.236894375903e-11 1.255036194267e-10 -2.724986623308e-11 1.300363597665e-11 1.934684435306e-10 2.788465818925e-11 8.033536146787e-11 6.936253934140e-11 1.888223862247e-11 9.404491790356e-11 5.241937316794e-11 3.788908157128e-11 -2.259389341872e-11 8.506765380364e-11 5.339566151185e-11 -6.271584558467e-11 6.624029385704e-12 -1.098088753689e-11 6.688044531528e-11 5.213736839721e-11 -2.507542772697e-11 1.736256357871e-11 -4.731242103282e-11 1.949283182326e-11 7.932451623909e-11 4.163992513064e-11 -7.137807210885e-11 2.028815644717e-11 1.374575652676e-10 1.816183645653e-10 1.941380382553e-10 1.330448465518e-10 1.855024712397e-10 1.504496395931e-10 5.301009369367e-11 1.186513225976e-10 8.662619610108e-11 3.864851202413e-11 4.346182325843e-11 4.776966225530e-11 3.468244071204e-11 4.206665782406e-11 5.510881883674e-11 -2.640065379853e-11 -6.843803658731e-11 -6.035118701083e-11 -1.211933260393e-11 -4.178708963055e-12 -6.408138012197e-11 -3.858198060081e-11 -5.137063146586e-11 -5.614634574688e-11 -2.089269493329e-11 -5.968466408794e-11 -4.956817313377e-11 -6.633575534889e-11 -1.122342736688e-10 -9.598433606028e-11 -4.371246975363e-11 -6.191565666564e-11 -9.189985876842e-11 -1.773780666618e-11 6.495235724654e-12 5.205952514176e-11 2.828715011070e-12 -3.210080066888e-11 -4.024954169147e-11 -1.716166984972e-11 -9.989568381120e-11 -3.903833502844e-11 1.119170315016e-10 1.241838015409e-10 1.266460613066e-10 -3.613735169757e-11 -1.220926595140e-11 -3.155837093385e-11 1.149487876093e-10 1.909749948387e-10 1.911320395121e-10 -6.182441141547e-11 -1.144125820307e-10 -1.700137906036e-10 -5.270215691806e-11 -1.593766874117e-10 -9.871174807336e-11 -4.250717372748e-11 -6.257951313784e-11 -2.977855820364e-11 4.016387371883e-11 7.135061332755e-11 1.126842617245e-10 8.719823282547e-11 1.365235396521e-10 1.431969548544e-10 2.298139801952e-11 4.405996564893e-11 2.280124261736e-11 -1.039971391489e-11 -5.215794672611e-11 -6.389765294449e-11 -1.598088534184e-11 -6.309315849480e-11 1.075974447705e-10 1.847463408143e-10 -3.098826268934e-11 -2.570667608180e-11 1.423694446056e-10 2.576402243494e-11 9.017894731323e-11 1.078464919268e-10 -6.946243085211e-11 -4.076079970451e-11 -2.635585264417e-12 7.967995786963e-11 -2.477002023632e-11 -7.479182926919e-12 2.657739385919e-11 -2.182378200319e-11 9.364972397823e-11 -6.425302275191e-12 -3.212216835117e-11 -6.927601431287e-11 1.620634135065e-11 -1.976081053708e-11 -5.734214003632e-11 -5.881840498281e-11 9.458364464545e-11 1.397621362773e-11 -1.623471309402e-11 8.147097765301e-11 8.010045484246e-11 8.183121081913e-11 1.903314757862e-10 1.620385257932e-10 1.960564461565e-10 1.537398173901e-10 1.371441944866e-10 1.503981891464e-10 9.561405640397e-11 8.476124669584e-11 9.418200520687e-11 3.834473817612e-11 6.796710421864e-11 2.273232590167e-10 1.912029423353e-10 2.033632658490e-10 1.375605228685e-11 8.619994100203e-11 1.271471570969e-11 1.223976620668e-10 1.100787316388e-10 9.891772049798e-11 -2.296785261256e-11 4.987561644069e-11 -7.704183370543e-12 -7.978418873194e-12 -2.799300949461e-11 2.332629600906e-11 -5.531274472736e-11 -9.949369777668e-11 -6.107839550005e-11 -2.654419332088e-12 6.557695337271e-11 1.988389886047e-11 1.199767233840e-10 1.045932507060e-10 1.335591131686e-10 6.619307723471e-11 7.976085087360e-11 5.671707596488e-11 1.977955081352e-10 1.746033878967e-10 1.409077517391e-10 4.904468169839e-11 6.768550057818e-11 2.517049037370e-11 -1.196581536113e-10 -1.189274751017e-10 -1.126639331307e-10 -1.948779620266e-11 -8.455837115576e-12 -1.549567223667e-13 -2.736378406309e-11 -2.287267778245e-11 -4.077112523642e-11 -7.462671009218e-11 -8.545923389761e-11 -9.115119425551e-11 -1.133677939815e-10 -1.417268329605e-10 -1.240451876416e-10 -7.031072802970e-11 -9.192691298570e-11 -9.788439794574e-11 9.760793515766e-11 9.467223674207e-11 1.202834451038e-10 5.044698920268e-11 6.126880143368e-11 -7.534986024883e-11 -6.167878765599e-11 -3.393305323506e-11 -2.126117268353e-11 -5.573858735675e-11 -1.020843024642e-10 -1.807026278466e-11 1.244854846953e-10 1.554010893167e-10 2.161017343533e-10 6.959444896456e-11 2.124384512162e-10 2.855783360320e-11 3.513425926544e-13 -8.856625028994e-11 -9.344351592413e-11 -2.425510356799e-11 6.169342346977e-11 -1.090329689382e-10 -1.869814784776e-11 1.421994699243e-10 1.070251025390e-10 1.373425530055e-10 -1.007937943721e-10 1.695396973250e-10 3.538083075214e-11 3.087581817822e-11 -2.873997079096e-11 -4.389839772072e-11 5.189204068874e-12 1.803360542493e-11 1.588230340655e-10 1.190174096430e-10 1.438319629655e-10 6.564212146300e-11 6.490306997896e-11 7.751777401039e-11 1.116023444177e-10 8.842734669862e-11 9.206955154508e-11 4.598598505557e-11 3.815252491964e-11 5.675623972097e-11 1.641766387703e-10 1.456780537732e-10 1.277489470545e-10 8.146372731119e-11 7.115453210000e-11 8.493379125851e-11 1.196938901437e-11 8.471896771110e-12 -4.262443459895e-11 5.386312295828e-11 3.791276155022e-11 1.189517931312e-11 -7.646115064881e-11 -6.679187425941e-11 -4.786446360788e-11 -1.412460132669e-10 -1.348751624829e-10 -1.290378543913e-10 -1.279719413844e-10 -1.055092278737e-10 -1.105017260781e-10 -3.030061700199e-11 5.605215702033e-11 -7.105148524896e-12 9.572167891947e-11 7.084226278032e-11 6.778315493289e-11 -7.204724537599e-11 -8.099982342121e-11 -8.661880398657e-11 1.595261530070e-10 1.322406202554e-10 1.245062897303e-10 8.718467173612e-11 4.577044319003e-11 6.539412621556e-11 5.359731597526e-11 7.592567025277e-11 3.191527600166e-11 1.695784234967e-11 1.231297688833e-11 2.963496304907e-11 7.983184699479e-11 5.107649900538e-11 5.269719677986e-11 -1.002731330766e-10 -6.996282295725e-11 -7.366928472357e-11 -8.474038419032e-11 -8.896810457282e-11 -1.301183167650e-10 -6.901442203005e-11 -4.986207106927e-11 -8.518574084426e-11 -4.867422178925e-11 -2.711396000661e-11 -2.532523059173e-11 -3.347692650193e-11 1.182228680849e-10 7.688556517071e-11 3.898142312414e-11 2.637399281987e-11 4.093373157432e-11 3.027940067131e-11 -6.459700814137e-11 -1.369126961688e-12 -1.203759050627e-11 1.776251061610e-10 5.928366591519e-11 9.605766713734e-11 1.421998945054e-10 7.904603268983e-11 1.685292420844e-10 -1.359919630609e-10 -9.125797191129e-11 1.841812919385e-11 -9.263312004034e-11 5.257404734361e-11 6.762649287495e-11 6.477504327550e-11 -6.128958083540e-11 -1.002542601598e-10 2.746414261377e-11 -7.077762179149e-11 1.015798096137e-10 2.928967712899e-11 3.411386077052e-11 -1.816488033486e-11 1.018762716848e-11 -1.239428392577e-11 2.572728626734e-11 8.562281657703e-11 5.492280487828e-11 4.847860170903e-11 7.594907846800e-11 3.632607924317e-11 4.272196308019e-11 8.928794855653e-11 3.855471666751e-11 5.493576808825e-11 7.010949344225e-11 5.153899345663e-11 6.339251836859e-11 7.182100536583e-11 6.529749849641e-11 4.219469908731e-11 1.031114237685e-11 7.838940677611e-11 4.792310638764e-11 -2.825411432594e-11 -2.234657427394e-11 -1.948597615729e-11 -2.555149751360e-11 -7.808128535193e-11 -4.660258942707e-11 -1.360057237911e-11 -1.095503521882e-11 -2.014845038135e-11 -6.403632760050e-11 -6.563727135837e-11 -4.296524838642e-11 -8.694203645143e-11 -6.983433007758e-11 -8.094629322781e-11 -7.251401697470e-11 4.283367442566e-11 -4.051435528932e-12 4.916011919013e-11 6.085611586419e-11 1.256646501616e-10 3.214943729619e-11 3.896962861876e-11 4.580562513491e-11 2.982190510885e-11 4.213962883305e-11 4.908000284760e-12 3.315389786257e-11 5.550945272736e-11 2.212766447396e-11 8.736723635975e-11 1.788911066927e-11 5.407013585150e-11 -1.513290878723e-10 -1.011688240416e-10 -1.359869975114e-10 -1.659026497874e-10 -1.297086856686e-10 -7.439584805226e-11 8.122581155855e-11 8.243556558342e-11 7.847255636997e-11 6.449758477590e-11 3.200774438849e-11 5.905393891268e-11 5.219716154770e-11 2.889474032040e-11 -5.893237672552e-12 1.135494013992e-10 7.123866313475e-11 4.952119337010e-11 -5.100734405373e-11 -2.602464174247e-11 5.765980150300e-11 1.387407215662e-11 -4.982297852235e-11 -3.434615242677e-11 -6.042634042393e-11 -4.798916010848e-11 2.198725567934e-11 7.528490697062e-11 7.240605703440e-11 7.030159738406e-11 8.064292016643e-11 -8.662130533435e-11 -1.343644076860e-10 4.514141574285e-11 2.105995794662e-12 1.004846635081e-10 5.865788493223e-11 -1.743662506049e-12 2.864757313025e-11 -1.366308568473e-10 4.774108704573e-11 -1.022630858755e-11 1.089848886533e-11 1.093084993059e-10 -9.453940046899e-11 -2.010163512786e-11 -7.029490620475e-11 6.762294194418e-11 5.183336868805e-11 -5.037584516921e-13 2.811361640087e-11 2.784213221844e-12 1.186792465999e-11 1.640866605640e-12 -2.546057861431e-11 -2.640443907357e-11 -1.368159464844e-13 1.284025361201e-11 -4.535052505692e-12 3.841807152172e-11 4.273019272340e-11 5.345515437147e-11 3.048998723041e-11 3.046196269766e-11 -6.283512661166e-12 6.801865275205e-11 5.128042199017e-11 3.398013393739e-11 -6.840594384161e-11 -2.952379026838e-11 -7.139775251054e-11 -2.743964905313e-11 -6.176868367377e-11 -6.474656569352e-11 -1.814819606262e-11 -1.479923229681e-11 2.024319900798e-11 -6.984495784589e-11 -4.897771184208e-11 -5.518666076060e-11 3.064411611472e-11 9.544044121274e-11 1.030136310937e-10 1.418244712064e-10 1.254241484073e-10 1.396828277803e-10 3.417973412529e-11 5.217930009392e-11 6.246896050875e-11 7.572062217332e-12 3.414950999450e-12 -1.637083294447e-11 9.468847283766e-11 1.420644782730e-10 8.029294978823e-11 3.364537162240e-11 4.012274149714e-11 2.250948987750e-11 1.689207238532e-11 1.506257502985e-12 1.176479355439e-11 -7.295293966726e-11 -5.214941495851e-11 -4.038309371508e-11 -1.715398717893e-11 1.770462979058e-11 2.774799937348e-11 9.203522799920e-12 -1.023105849534e-11 1.321480603366e-11 2.994780941879e-11 6.250648859184e-11 5.928539642534e-11 7.672101776759e-11 -2.873069559316e-11 -3.595400334997e-11 2.832346833560e-11 2.947908913985e-11 1.269959191428e-10 1.131253276998e-10 5.305491694122e-11 4.065367287420e-11 -2.042360587653e-11 -8.766146638638e-12 -3.529647201687e-11 -5.406837795772e-11 9.867617591809e-12 -1.012151724918e-12 -4.502894348864e-11 -7.407694549635e-11 7.430438403118e-11 1.916196095388e-11 4.321544450598e-11 4.573466215116e-11 6.946341903011e-12 -6.793055971128e-11 5.997227688237e-11 -9.457743666644e-11 4.464525600099e-11 -1.088209921299e-12 1.233999995376e-10 2.349129775613e-11 -3.022908101497e-11 -3.792026862509e-11 4.618140286175e-11 2.430904174064e-12 5.583511457728e-11 3.901179659023e-11 -7.132737302994e-11 -1.802033080203e-11 3.757501549490e-11 -2.020006162725e-11 -1.062641973836e-11 -1.108238372671e-11 4.977219480656e-13 -1.170602876062e-11 -1.860530573503e-11 -2.216038927158e-11 -3.526704879074e-11 -3.941770677630e-11 1.572372525513e-11 -4.123116117190e-11 -5.884724646234e-11 7.459441020845e-13 -6.771601138192e-11 -4.807038944627e-11 4.545645490996e-11 -1.832744613263e-11 4.968806445094e-11 -3.231013956577e-12 4.932240564321e-12 -2.067372112622e-11 -1.925657499488e-11 8.544318079065e-12 9.467944734246e-12 1.952992574398e-10 2.097273556356e-10 2.671384099327e-10 -8.619127412176e-11 -6.930696039862e-11 -5.034429441618e-11 -6.340115279568e-11 -1.030614291222e-10 -8.055962260848e-11 1.391663933795e-10 1.865325501934e-10 1.920829721650e-10 9.051765061840e-11 1.210483484192e-10 1.174118369803e-10 3.233248186148e-11 3.699964938681e-11 3.873087366955e-11 -1.581220800273e-11 -3.357190050407e-12 -2.269815219268e-12 -2.828885605945e-11 -1.101482107202e-11 -2.100386336211e-11 -2.349919351266e-11 -5.225301470448e-11 -1.291299473792e-10 4.996602039816e-11 1.244797020452e-10 5.948142041605e-11 7.802037574124e-11 1.579022637831e-10 1.537327504639e-10 7.482686529853e-11 7.590884597691e-11 1.039531305003e-10 1.875668406761e-11 3.475165547400e-11 1.144086525911e-11 -2.133294075990e-11 -3.067632533472e-11 -2.268291616164e-11 1.082346467316e-10 2.098909664128e-10 1.921496256017e-10 2.341943142958e-10 -1.420284509937e-11 -1.856473626447e-12 5.987422383038e-11 4.543514112758e-11 -7.327485309778e-11 -1.111367773255e-10 6.132509297105e-11 -8.607892505701e-12 3.540660363821e-12 -5.043470837240e-12 -1.666149710755e-11 -2.371564623872e-11 -1.308240451733e-11 9.113840946396e-12 -1.224748227700e-12 8.370590497025e-11 8.692124272469e-11 8.439921301445e-11 1.124115932084e-11 2.232199718035e-11 -1.033823536941e-10 3.494001041184e-12 -3.977094616455e-11 2.004332799270e-11 2.308371652945e-10 1.722931319099e-10 -8.298296956875e-11 1.948848246047e-11 4.039202215611e-12 5.571037541032e-11 -1.214314439633e-10 -3.559016525500e-12 2.612917729646e-11 3.611416355008e-11 -5.210304053484e-11 -3.148066779046e-11 -4.293876207693e-11 -6.917931922615e-11 -6.894114433158e-11 -1.260637273869e-10 -1.219537624339e-11 -7.677502360349e-12 -1.710901131658e-11 -6.615603882025e-11 -3.162800198969e-11 -6.098063271997e-11 -1.515214173026e-11 2.811747586787e-11 1.634132359715e-11 -4.497278832734e-11 -1.514724413607e-11 5.340272928727e-13 -4.973549557343e-11 4.846368847321e-11 1.800121830629e-11 -7.315251013929e-11 -1.302657588055e-11 -7.644909966526e-12 -1.683327517090e-11 1.774396075432e-11 2.662021183998e-11 2.168091190250e-10 1.929093598097e-10 1.795146215320e-10 2.651096038155e-10 2.048286642053e-10 2.615260201641e-10 2.562042086442e-10 2.477307669621e-10 1.527691414054e-10 1.623332789986e-10 1.709845712015e-10 1.581997939078e-10 6.062327058178e-11 4.239345897801e-11 4.339537758721e-11 4.008995514574e-11 5.710409534555e-11 4.167873002744e-11 -6.594781224295e-11 -4.217007004629e-11 -4.038877601763e-11 2.608704989223e-11 4.451590364655e-11 1.107446915711e-10 1.325355304237e-10 1.360051656366e-10 1.726659654737e-10 8.297287538752e-11 1.076560938448e-10 5.349028734595e-11 3.204730828704e-11 3.231550306573e-11 3.472883294599e-11 -1.275559670940e-10 -7.773866079582e-11 -5.167631495605e-11 2.398130965456e-10 1.844651032175e-10 -4.181075667978e-11 -7.266119611857e-12 -2.990804389448e-11 8.216058186803e-12 4.066856414709e-11 2.900029251029e-10 2.575987847252e-10 8.687359329206e-12 5.016702370480e-11 1.816843290687e-10 1.759131182491e-10 -1.158037681228e-11 -2.194208369777e-11 -2.808779841742e-11 2.583222036886e-12 -4.916016281119e-11 2.721505399210e-11 1.907800413958e-10 -5.043910028867e-11 4.798199193292e-11 8.084265542635e-11 1.457251986543e-10 4.630278861910e-11 -6.277160116446e-11 -6.670547346909e-11 -1.046005310724e-11 2.992574312149e-10 1.788841074689e-10 2.244303453005e-10 3.460250623540e-11 -4.655514148740e-11 -1.960181092675e-11 3.376630930881e-11 -6.838082117116e-11 -4.144960287664e-11 -6.377573161687e-11 -6.431916307068e-11 -6.707090642787e-11 -4.533452604202e-11 2.050140221485e-11 8.612442645624e-12 8.118181221301e-12 -2.259082892902e-11 -1.208325464425e-11 6.348462409702e-12 -4.774361313741e-11 -5.476262835129e-11 -3.039918737652e-11 4.005406702255e-11 5.478528055114e-11 2.847709922327e-11 3.554160803807e-11 -6.037749871827e-12 1.184580202664e-12 1.400505388527e-10 1.669008758600e-10 9.184581357899e-11 1.649791546104e-10 1.741298447339e-10 1.523567598038e-10 1.074831008340e-11 -3.770261439567e-11 3.226154658813e-12 1.092195360965e-10 1.141184492101e-10 6.203588720557e-11 3.365663858964e-11 6.304139184056e-11 2.555472536416e-11 1.174248365644e-10 1.075337428574e-10 1.165755799666e-10 3.055981093904e-11 2.044187247859e-11 1.626014315235e-11 -1.142061146355e-11 -2.040552788951e-11 -3.282514939116e-12 1.184605340856e-10 5.192808675824e-11 8.153261519136e-11 1.466412191328e-11 2.203819302974e-11 5.115696405262e-11 1.235243636255e-10 5.817746193165e-12 1.323018309279e-10 2.246233439413e-10 5.491042053922e-11 5.869210067422e-11 6.547018056452e-11 4.795609366790e-11 5.073409623547e-11 4.395623213650e-11 9.002889218267e-13 3.187739872415e-11 -7.382086334000e-12 -7.451898241991e-12 -2.111801040149e-11 -7.048251142883e-12 -2.669371682607e-11 -9.585067212260e-11 1.691653140042e-11 -2.032647184250e-11 9.120549108706e-11 4.678364160914e-11 1.387275813371e-10 1.737157362403e-10 1.139396944301e-10 1.291806128213e-10 -3.056912494645e-12 -3.013103545784e-11 -6.929145704842e-11 3.343803039061e-11 -5.643407175490e-11 4.667433447425e-11 4.406709980463e-11 -1.960118782418e-11 -7.854709359786e-13 4.568175218887e-11 1.529567017508e-10 1.662009522776e-10 8.751226912063e-11 4.373382584896e-11 6.071742256833e-11 2.813891428893e-11 3.234759163467e-11 1.654403733511e-11 1.370590297588e-10 -5.894260267948e-12 9.181885909507e-11 1.831596396542e-10 8.118092688564e-11 1.237588590429e-10 4.441476176923e-10 9.876860320642e-11 9.211526313498e-11 2.193735131082e-10 -1.574947612828e-10 1.015485572415e-10 -1.718219485239e-10 5.194849022712e-11 1.682944036899e-10 3.206151838040e-10 2.210696215369e-10 2.215653540268e-10 1.715009755882e-10 2.130394255967e-10 2.297964467061e-10 3.987145551765e-10 1.839193239980e-11 9.623599774427e-11 1.229936848569e-10 5.496438962247e-11 3.181534708384e-10 1.728073160946e-10 1.492265420165e-11 3.921107530908e-10 4.221482850786e-10 4.908775103057e-10 1.485371094716e-10 -1.835069537384e-10 6.681630025818e-11 3.306301075841e-10 2.478237672898e-10 -2.567012242721e-10 -1.847488676800e-10 -1.811946016325e-10 -2.414304811964e-10 -1.687119830109e-10 -2.635011280389e-10 -2.647391960420e-10 5.393073431052e-10 6.063525801359e-10 5.360506924865e-10 5.798651220648e-10 2.970695182438e-10 2.974945900031e-10 3.386792102698e-10 3.430086540322e-10 -3.466674384848e-10 -2.975798645886e-10 -2.728933848974e-10 -3.787805134339e-10 3.474849350920e-10 3.720939450956e-10 3.095833764522e-10 3.771276279634e-10 3.649384956624e-10 2.743789190273e-11 9.049385716084e-11 2.439403062283e-10 4.907410296994e-10 5.562652636571e-10 6.191694726066e-10 -5.998646022997e-11 2.522290744735e-11 -6.896059226407e-12 5.519617283488e-10 5.670063318202e-10 5.831698744628e-11 3.210387526807e-11 -9.979003474121e-11 1.129513659753e-10 -1.532021533815e-10 8.029513683827e-11 -1.863282435118e-10 -9.511097410774e-11 6.008505122843e-11 -8.604793981057e-11 -1.728420127452e-10 -2.130917794287e-10 -6.552530634714e-11 4.917194276658e-10 2.662606803634e-10 1.952968837980e-10 3.206951176452e-10 3.878933193075e-10 2.497071561253e-10 2.897133835821e-10 2.836708174802e-10 1.705968082848e-10 2.138554684694e-10 2.427970052296e-10 -4.886692903692e-10 -4.601315951201e-10 -4.097038030741e-10 -4.665491780525e-10 -4.073478566719e-10 -4.821909777584e-10 4.625648007632e-10 4.417073925047e-10 4.172413329980e-10 -3.274836490816e-10 -2.758867372763e-10 -3.220452600341e-10 1.859179440897e-12 -7.875367253584e-11 -1.399760423145e-10 -1.196048077564e-10 2.965400428612e-10 3.658978970409e-10 4.343920322550e-10 4.091506782105e-10 4.008102910923e-10 3.920260268802e-10 4.046198224707e-10 -3.879051901256e-10 -3.448649342081e-10 -3.627818363039e-10 3.847965557302e-10 3.360849996162e-10 3.097033233649e-10 3.733489260419e-10 1.940896089681e-10 2.454823945392e-10 1.323624274336e-10 1.684346323337e-10 -1.957297253480e-11 6.468379728446e-11 3.510998530393e-11 1.461742483834e-10 1.858671256335e-10 2.933953489110e-10 3.089304473062e-10 3.378613662713e-10 2.120535864656e-10 2.260807646959e-10 2.964121619739e-10 2.107342966578e-10 2.493411815632e-10 2.546073878671e-10 3.348838653667e-10 2.660962521091e-10 3.211611123167e-10 2.833351780795e-10 2.730757147100e-10 2.813676623868e-10 5.872654255122e-10 5.369056725363e-10 5.922430331208e-10 6.003761909552e-10 4.143433376784e-10 2.972381361456e-10 3.723298243431e-10 2.997043579674e-10 5.278658182626e-10 5.439069163532e-10 5.073471743362e-10 1.282839862983e-10 8.076273870351e-11 5.873397461987e-10 4.941221356306e-10 4.612598150830e-10 -5.119237010592e-11 -7.752715004001e-11 1.052225759194e-10 -2.579418833655e-11 2.163365023869e-10 3.488271356951e-10 3.494403058561e-10 1.208934622788e-10 2.074627612835e-11 -8.943896525809e-11 3.943160285518e-10 4.854912637686e-10 3.513769126164e-10 4.306274994124e-10 4.691197254360e-10 4.970377930994e-10 -3.396576458155e-10 -2.927299581682e-10 -3.650821155623e-10 -1.200755127595e-10 -1.985182453898e-10 -2.241967160333e-10 -1.472196742696e-10 -1.418097088686e-10 6.035995959418e-10 6.032774636326e-10 5.471964143615e-10 6.039011365919e-10 6.475824988735e-10 2.069465736508e-10 2.012606556280e-10 2.529088827529e-10 3.548253203120e-10 2.156032965009e-10 -5.911956988328e-11 -1.729768857221e-10 -3.899132259671e-11 -1.779222087070e-10 -2.957719828768e-10 7.998786079793e-11 -3.223897194333e-10 -3.032380954519e-10 3.651856190131e-10 3.783407180139e-10 3.368456893353e-10 2.319433039097e-10 2.831882008984e-10 1.756367276091e-10 6.333199431321e-10 5.442413091375e-10 5.653607384187e-10 5.773856060366e-10 -3.006172375014e-10 -3.291646425283e-10 2.599338093384e-10 2.686339953486e-10 3.388224853077e-10 2.020362579191e-10 5.012982434759e-10 7.313322648732e-11 2.061797617005e-10 1.526611392096e-10 -2.563573173066e-10 4.290095407738e-10 1.231153575788e-10 1.029342087068e-10 1.466568496660e-10 6.997841692687e-11 1.114566133831e-10 1.250878571249e-10 -3.039989676172e-10 -2.343819297057e-10 -2.275840691623e-10 -1.599862124847e-10 -1.061422372837e-10 -1.754002632124e-10 -3.246288737163e-12 5.121627250029e-10 4.668631566891e-10 7.144972142355e-11 7.334619497405e-11 4.393096538882e-11 2.669572045458e-10 2.082575058636e-10 3.173997679578e-10 1.094995773154e-10 2.143093715521e-10 4.306070700077e-10 5.066521927707e-10 5.004708019173e-10 3.400276222057e-10 3.987290110776e-10 6.263420223012e-10 5.930343852467e-10 6.013106820646e-10 1.603004786684e-10 1.239628868305e-10 2.938595417027e-10 1.424697851342e-10 5.324603102421e-10 5.567596261050e-10 4.891697880094e-10 3.811687815352e-10 3.998374342534e-10 4.158566021198e-10 3.226021485538e-10 1.436704928229e-10 2.368078352899e-10 1.615490567852e-10 1.086341828704e-10 8.573588911544e-11 7.511699853912e-11 1.366108405073e-10 1.821028174114e-10 2.661341548180e-10 2.993231765601e-10 2.946920635756e-10 -4.080141852057e-10 -3.218455477352e-10 5.860521124524e-10 3.606306665270e-10 3.123019225749e-10 3.158518127792e-10 3.008631685011e-10 -1.236469018753e-10 -2.166030255238e-10 -1.418494760656e-10 -2.280570125666e-10 -2.461508623401e-10 1.769593630580e-10 1.955051463964e-10 1.935071392369e-10 -3.638607415251e-10 -4.386670082285e-10 3.783381267659e-11 5.052166613303e-11 4.424596345234e-10 3.861653961589e-10 5.096093127421e-10 4.959698084809e-10 4.942992781291e-10 -3.945053993226e-10 -3.945910330435e-10 -3.015762082092e-10 5.472485485603e-11 1.858220685138e-10 1.567483808004e-10 3.137729366180e-11 -3.591184323295e-10 -2.254688990819e-10 -2.942778784621e-10 -1.116793637157e-10 -1.832865229911e-10 -1.618944167139e-10 1.247305585433e-10 1.689005621871e-10 1.717744630949e-10 5.514621990030e-10 5.422806715631e-10 5.559922205070e-10 -1.910295832218e-10 4.508427689336e-11 8.445197119358e-11 -7.836733806053e-11 5.612613256101e-11 3.298877605288e-10 2.854948421407e-10 4.559127973873e-10 4.726547193420e-10 1.163941467803e-10 1.020398873697e-10 1.821122672512e-10 1.388165653607e-10 6.889083902105e-11 2.190760012997e-10 5.575013776124e-10 2.174188051818e-10 1.816120280140e-10 2.461238542255e-10 2.377643760117e-10 -1.080663005239e-10 3.227939443931e-10 2.538333989051e-10 3.328355351745e-10 3.113427849734e-10 -1.579123423205e-10 5.282638470179e-10 -1.729831596342e-10 5.365898994601e-11 -1.340446465076e-10 2.512735555691e-10 -4.286600045071e-10 -3.929893477064e-10 2.421461163191e-10 3.915088661011e-10 1.229293468234e-10 1.635238948553e-10 3.667353441689e-11 5.219851173839e-11 5.422882912557e-11 5.006746613317e-10 3.174839797099e-11 1.981374875128e-10 1.690264643745e-10 -3.068347689746e-10 -3.132181349939e-10 -2.442000663299e-10 2.010287064523e-10 2.700405500159e-10 1.556504281270e-10 2.658721618395e-10 1.562122588235e-10 1.815701120416e-10 4.172860485489e-10 1.024227890406e-10 1.201087815882e-10 3.271565143358e-10 3.166947502532e-10 2.955519881411e-10 6.204773343600e-11 1.985812446483e-10 1.985566694372e-10 4.134669959254e-10 4.562659050925e-10 1.695007760968e-10 4.944087655012e-10 -2.112889467498e-11 2.675172787079e-10 1.297802285520e-10 2.127069373260e-10 -1.776420684741e-10 1.438246680317e-10 -6.957686877089e-11 -2.253680088324e-11 5.244800527584e-11 5.069446611144e-10 1.921520901047e-10 4.431171618293e-10 4.185140514238e-10 5.398627879807e-10 -2.744101234179e-10 -2.126387147958e-10 2.166083638330e-12 4.713106658835e-10 2.736125508141e-10 -1.037495470136e-10 9.337759256666e-11 -8.486770447489e-11 -1.758618273365e-12 -1.364531392649e-10 -2.601356984794e-10 -2.877774273702e-10 -3.251187452938e-10 -3.710361053170e-10 2.163673252428e-10 4.660326716691e-10 2.788593682357e-10 -3.248946659185e-10 2.364195492540e-10 6.856106192036e-11 5.898752738951e-10 3.413769151476e-10 -3.749408788075e-10 -3.062600512391e-10 9.532094370189e-11 -1.418546614854e-10 -1.526011800079e-10 5.218280278949e-10 -2.190860862842e-10 5.462097347047e-11 6.012216017572e-10 1.192666212029e-10 -1.093768337861e-10 5.715995633991e-10 -5.688413510484e-11 1.233637717442e-10 1.442674229501e-10 -2.124935614716e-10 -2.549019440962e-10 -2.853634395660e-10 3.962790452409e-10 2.295878206154e-11 3.953535375236e-11 1.886321067517e-10 -4.123015421010e-11 1.278121653010e-10 -7.550263534561e-12 -1.013567249703e-10 -7.576048944770e-11 1.883651049086e-10 -2.712164389630e-10 -4.343325104086e-10 -3.068624788382e-10 3.325085708315e-10 4.680700371360e-10 3.075067393388e-10 3.873566730502e-10 3.436021096373e-10 4.757089102212e-10 -1.914765142448e-10 2.198599118157e-10 -2.443688991924e-10 1.738738583009e-11 -9.867679101489e-11 3.166612163819e-11 -2.364360269382e-10 2.551347622753e-10 -3.375853324112e-10 -3.349428588849e-10 4.355518997613e-11 -2.889328571036e-10 9.667881207532e-11 4.693085200936e-10 1.128547845453e-10 -4.833670499967e-10 5.218161941896e-10 2.958670583993e-10 4.341257856981e-10 1.442695474081e-10 -1.241009938524e-10 4.671853639006e-11 1.179927488361e-10 3.875519934196e-10 -1.689431306078e-10 -2.267611427046e-10 3.618551561111e-10 6.861591676788e-11 9.854625473783e-11 -2.930933022758e-10 3.022541351630e-10 9.071998663410e-11 -2.939442730598e-10 4.084502536542e-10 2.084487821935e-10 2.217090254442e-10 4.718876071147e-10 -4.112930273847e-10 1.717457514168e-10 5.863749379114e-10 2.415747871804e-10 1.399505193446e-10 -2.562774234966e-10 4.407093374265e-10 5.673399727856e-10 -2.568193961789e-10 1.288204888330e-10 -1.296467063535e-10 2.571986095367e-10 2.622177638155e-10 -1.628085435620e-10 -6.272803773896e-12 1.778283574575e-10 2.906886817178e-10 1.255307502975e-11 3.387079549728e-10 1.646253942689e-10 1.996510984152e-10 -2.593056969105e-10 5.634477826937e-11 6.192492865984e-11 1.085702442896e-10 2.402201060461e-10 3.320585678184e-10 2.615747318738e-10 1.334484255419e-10 -1.255001737747e-11 3.001475288205e-10 1.230942504325e-10 5.724181743227e-11 6.905529681217e-11 1.962391486450e-10 -1.947346112680e-10 -6.926810540306e-12 -1.717449638658e-10 2.821112639683e-10 1.926019577315e-10 4.130483301075e-10 1.471366816918e-10 7.248475240529e-11 3.357997704222e-10 -5.297036327419e-11 1.628987494844e-10 7.789221550420e-11 -1.915348466107e-10 -1.078492497918e-10 1.313837037376e-10 6.100265231045e-11 4.430916604931e-10 1.369965194877e-10 -1.940763602529e-10 1.423915056008e-10 2.562673586559e-10 -2.687845188018e-10 4.018746522389e-10 1.439091395890e-10 -1.124078555662e-10 4.704098940566e-10 -2.067258590075e-11 -2.002916411909e-11 6.001433802430e-11 1.603331620844e-11 -2.007570137857e-10 -4.689880585079e-11 3.717434883004e-10 -2.435486781993e-11 1.662330094068e-10 7.531711331753e-11 2.237596519877e-10 1.879788739855e-10 1.003990809408e-10 7.720069984727e-11 2.798442837658e-10 9.726019268306e-11 1.265703333905e-10 7.560696672038e-11 4.580312716196e-10 1.550398040420e-10 -1.344968122831e-10 -3.694756333877e-12 4.186154698562e-11 1.390269893134e-10 1.372103409263e-10 -7.321578519818e-11 3.125931565974e-10 1.047457943957e-10 -2.821470515671e-10 4.951804988365e-10 -1.077608305681e-10 -2.735067437176e-10 1.131217011940e-10 2.885880322122e-10 1.904274445767e-10 2.831799683135e-11 2.606228589600e-11 5.367115464038e-12 4.312162269897e-10 1.586185456862e-10 -1.269589875105e-10 3.922981952868e-10 1.259223450477e-10 1.323127791842e-10 -1.064449487112e-10 1.754544766410e-10 4.864598063562e-11 1.431748529003e-10 -8.673254779116e-11 2.117100036150e-10 -3.395707986114e-10 1.390842925555e-11 2.081313837917e-10 3.819955173705e-10 1.108529812803e-10 3.423690007988e-11 1.971954636583e-10 8.101299904957e-11 -7.356431944108e-11 -1.099713880953e-10 -7.865692251856e-12 -7.450461856403e-11 1.691063825499e-10 5.935328689794e-11 2.341653539054e-11 6.772114323935e-11 1.521851464513e-10 4.361209725476e-10 1.214567971529e-10 -7.276828261742e-11 4.298619826553e-11 6.007592804055e-11 2.590139166747e-12 -2.051909065641e-10 -1.478715038970e-10 -1.883594233621e-11 -9.260673803495e-12 3.202066837788e-10 1.454039779182e-10 -2.074623366979e-11 2.761500857981e-11 2.124455155190e-10 4.556005925734e-11 2.237294496763e-10 -8.600624588657e-11 1.051923572957e-10 3.654107674477e-10 -3.976970053071e-11 2.622172903356e-10 1.189673169422e-10 2.389410153684e-10 -2.854895683169e-11 7.149989591313e-11 8.729959382620e-11 -8.159140989792e-13 6.391530840965e-11 2.431250794928e-10 6.147874046219e-11 1.063004931843e-10 8.635135414170e-11 3.328714216061e-10 6.547758310213e-11 1.322721874057e-10 -2.641100322383e-10 3.026009689459e-10 9.891071681640e-11 8.321934584992e-11 1.604086452549e-10 -2.686248929502e-10 8.719797050978e-11 1.895417073374e-10 -1.331579039316e-10 -1.075001859491e-11 8.981962996847e-11 4.502681477392e-10 1.542091012257e-10 -7.393000567697e-12 -3.836659398972e-10 -5.470528315486e-11 1.763177029197e-10 5.721748096324e-11 1.314959764716e-10 8.205845683103e-11 -1.571338484044e-11 2.393036009764e-10 -7.376210404395e-11 9.421718447378e-11 7.890813529703e-11 6.686946694180e-11 2.679327012503e-10 3.114186475054e-10 -1.679356646230e-10 1.970439430972e-11 6.709728968797e-11 5.031412342309e-10 1.383745698604e-10 1.996594053694e-10 9.513556285598e-11 5.413740856543e-11 -4.641346442401e-11 3.033371150972e-10 2.500852041421e-10 7.148490454394e-11 -1.098915524279e-11 2.020027629092e-10 6.873179976891e-11 -5.154241981702e-11 6.213623965520e-11 1.987347034204e-10 -1.246487220911e-11 7.875440922333e-11 4.351025892922e-10 6.340380746379e-12 1.268868085957e-10 -2.692401298800e-10 5.222229330552e-10 8.267838613819e-11 4.191049036951e-11 1.119499173119e-10 -2.107678569878e-10 -3.866389876784e-10 1.104519597971e-10 7.842794174309e-11 2.542506925194e-10 5.401141585563e-10 3.311446069520e-11 -2.582671502436e-10 -1.547794103742e-13 9.642152568081e-12 2.474316784151e-10 4.507562272024e-11 3.317956184919e-10 2.495768171791e-10 9.645120780770e-11 2.596889172853e-10 -2.012370631292e-10 1.983170333332e-10 5.106643941622e-12 1.869328052693e-10 4.725270606001e-11 5.176971590564e-10 4.262767603105e-11 -4.581161088216e-11 -4.104463037694e-10 1.958871297039e-10 -7.176431365450e-11 -1.272806288369e-10 1.280256595579e-10 3.411611979610e-11 5.528807827236e-11 5.183932834862e-11 -9.686769558715e-12 1.370352522363e-10 1.923813255980e-10 3.547197813267e-10 2.849854296282e-11 6.500805087072e-12 1.236234591542e-10 3.594924152268e-11 1.227066831306e-10 
        </DataArray>
        <DataArray type="Float64" Name="STRAIN_PLS" format="ascii">
          0.000000000000e+00 0.000000000000e+00 0.000000000000e+00 0.000000000000e+00 0.000000000000e+00 0.000000000000e+00 0.000000000000e+00 0.000000000000e+00 0.000000000000e+00 0.000000000000e+00 0.000000000000e+00 0.000000000000e+00 0.000000000000e+00 0.000000000000e+00 0.000000000000e+00 0.000000000000e+00 0.000000000000e+00 0.000000000000e+00 0.000000000000e+00 0.000000000000e+00 0.000000000000e+00 0.000000000000e+00 0.000000000000e+00 0.000000000000e+00 0.000000000000e+00 0.000000000000e+00 0.000000000000e+00 0.000000000000e+00 0.000000000000e+00 0.000000000000e+00 0.000000000000e+00 0.000000000000e+00 0.000000000000e+00 0.000000000000e+00 0.000000000000e+00 0.000000000000e+00 0.000000000000e+00 0.000000000000e+00 0.000000000000e+00 0.000000000000e+00 0.000000000000e+00 0.000000000000e+00 0.000000000000e+00 0.000000000000e+00 0.000000000000e+00 0.000000000000e+00 0.000000000000e+00 0.000000000000e+00 0.000000000000e+00 0.000000000000e+00 0.000000000000e+00 0.000000000000e+00 0.000000000000e+00 0.000000000000e+00 0.000000000000e+00 0.000000000000e+00 0.000000000000e+00 0.000000000000e+00 0.000000000000e+00 0.000000000000e+00 0.000000000000e+00 0.000000000000e+00 0.000000000000e+00 0.000000000000e+00 0.000000000000e+00 0.000000000000e+00 0.000000000000e+00 0.000000000000e+00 0.000000000000e+00 0.000000000000e+00 0.000000000000e+00 0.000000000000e+00 0.000000000000e+00 0.000000000000e+00 0.000000000000e+00 0.000000000000e+00 0.000000000000e+00 0.000000000000e+00 0.000000000000e+00 0.000000000000e+00 0.000000000000e+00 0.000000000000e+00 0.000000000000e+00 0.000000000000e+00 0.000000000000e+00 0.000000000000e+00 0.000000000000e+00 0.000000000000e+00 0.000000000000e+00 0.000000000000e+00 0.000000000000e+00 0.000000000000e+00 0.000000000000e+00 0.000000000000e+00 0.000000000000e+00 0.000000000000e+00 0.000000000000e+00 0.000000000000e+00 0.000000000000e+00 0.000000000000e+00 0.000000000000e+00 0.000000000000e+00 0.000000000000e+00 0.000000000000e+00 0.000000000000e+00 0.000000000000e+00 0.000000000000e+00 0.000000000000e+00 0.000000000000e+00 0.000000000000e+00 0.000000000000e+00 0.000000000000e+00 0.000000000000e+00 0.000000000000e+00 0.000000000000e+00 0.000000000000e+00 0.000000000000e+00 0.000000000000e+00 0.000000000000e+00 0.000000000000e+00 0.000000000000e+00 0.000000000000e+00 0.000000000000e+00 0.000000000000e+00 0.000000000000e+00 0.000000000000e+00 0.000000000000e+00 0.000000000000e+00 0.000000000000e+00 0.000000000000e+00 0.000000000000e+00 0.000000000000e+00 0.000000000000e+00 0.000000000000e+00 0.000000000000e+00 0.000000000000e+00 0.000000000000e+00 0.000000000000e+00 0.000000000000e+00 0.000000000000e+00 0.000000000000e+00 0.000000000000e+00 0.000000000000e+00 0.000000000000e+00 0.000000000000e+00 0.000000000000e+00 0.000000000000e+00 0.000000000000e+00 0.000000000000e+00 0.000000000000e+00 0.000000000000e+00 0.000000000000e+00 0.000000000000e+00 0.000000000000e+00 0.000000000000e+00 0.000000000000e+00 0.000000000000e+00 0.000000000000e+00 0.000000000000e+00 0.000000000000e+00 0.000000000000e+00 0.000000000000e+00 0.000000000000e+00 0.000000000000e+00 0.000000000000e+00 0.000000000000e+00 0.000000000000e+00 0.000000000000e+00 0.000000000000e+00 0.000000000000e+00 0.000000000000e+00 0.000000000000e+00 0.000000000000e+00 0.000000000000e+00 0.000000000000e+00 0.000000000000e+00 0.000000000000e+00 0.000000000000e+00 0.000000000000e+00 0.000000000000e+00 0.000000000000e+00 0.000000000000e+00 0.000000000000e+00 0.000000000000e+00 0.000000000000e+00 0.000000000000e+00 0.000000000000e+00 0.000000000000e+00 0.000000000000e+00 0.000000000000e+00 0.000000000000e+00 0.000000000000e+00 0.000000000000e+00 0.000000000000e+00 0.000000000000e+00 0.000000000000e+00 0.000000000000e+00 0.000000000000e+00 0.000000000000e+00 0.000000000000e+00 0.000000000000e+00 0.000000000000e+00 0.000000000000e+00 0.000000000000e+00 0.000000000000e+00 0.000000000000e+00 0.000000000000e+00 0.000000000000e+00 0.000000000000e+00 0.000000000000e+00 0.000000000000e+00 0.000000000000e+00 0.000000000000e+00 0.000000000000e+00 0.000000000000e+00 0.000000000000e+00 0.000000000000e+00 0.000000000000e+00 0.000000000000e+00 0.000000000000e+00 0.000000000000e+00 0.000000000000e+00 0.000000000000e+00 0.000000000000e+00 0.000000000000e+00 0.000000000000e+00 0.000000000000e+00 0.000000000000e+00 0.000000000000e+00 0.000000000000e+00 0.000000000000e+00 0.000000000000e+00 0.000000000000e+00 0.000000000000e+00 0.000000000000e+00 0.000000000000e+00 0.000000000000e+00 0.000000000000e+00 0.000000000000e+00 0.000000000000e+00 0.000000000000e+00 0.000000000000e+00 0.000000000000e+00 0.000000000000e+00 0.000000000000e+00 0.000000000000e+00 0.000000000000e+00 0.000000000000e+00 0.000000000000e+00 0.000000000000e+00 0.000000000000e+00 0.000000000000e+00 0.000000000000e+00 0.000000000000e+00 0.000000000000e+00 0.000000000000e+00 0.000000000000e+00 0.000000000000e+00 0.000000000000e+00 0.000000000000e+00 0.000000000000e+00 0.000000000000e+00 0.000000000000e+00 0.000000000000e+00 0.000000000000e+00 0.000000000000e+00 0.000000000000e+00 0.000000000000e+00 0.000000000000e+00 0.000000000000e+00 0.000000000000e+00 0.000000000000e+00 0.000000000000e+00 0.000000000000e+00 0.000000000000e+00 0.000000000000e+00 0.000000000000e+00 0.000000000000e+00 0.000000000000e+00 0.000000000000e+00 0.000000000000e+00 0.000000000000e+00 0.000000000000e+00 0.000000000000e+00 0.000000000000e+00 0.000000000000e+00 0.000000000000e+00 0.000000000000e+00 0.000000000000e+00 0.000000000000e+00 0.000000000000e+00 0.000000000000e+00 0.000000000000e+00 0.000000000000e+00 0.000000000000e+00 0.000000000000e+00 0.000000000000e+00 0.000000000000e+00 0.000000000000e+00 0.000000000000e+00 0.000000000000e+00 0.000000000000e+00 0.000000000000e+00 0.000000000000e+00 0.000000000000e+00 0.000000000000e+00 0.000000000000e+00 0.000000000000e+00 0.000000000000e+00 0.000000000000e+00 0.000000000000e+00 0.000000000000e+00 0.000000000000e+00 0.000000000000e+00 0.000000000000e+00 0.000000000000e+00 0.000000000000e+00 0.000000000000e+00 0.000000000000e+00 0.000000000000e+00 0.000000000000e+00 0.000000000000e+00 0.000000000000e+00 0.000000000000e+00 0.000000000000e+00 0.000000000000e+00 0.000000000000e+00 0.000000000000e+00 0.000000000000e+00 0.000000000000e+00 0.000000000000e+00 0.000000000000e+00 0.000000000000e+00 0.000000000000e+00 0.000000000000e+00 0.000000000000e+00 0.000000000000e+00 0.000000000000e+00 0.000000000000e+00 0.000000000000e+00 0.000000000000e+00 0.000000000000e+00 0.000000000000e+00 0.000000000000e+00 0.000000000000e+00 0.000000000000e+00 0.000000000000e+00 0.000000000000e+00 0.000000000000e+00 0.000000000000e+00 0.000000000000e+00 0.000000000000e+00 0.000000000000e+00 0.000000000000e+00 0.000000000000e+00 0.000000000000e+00 0.000000000000e+00 0.000000000000e+00 0.000000000000e+00 0.000000000000e+00 0.000000000000e+00 0.000000000000e+00 0.000000000000e+00 0.000000000000e+00 0.000000000000e+00 0.000000000000e+00 0.000000000000e+00 0.000000000000e+00 0.000000000000e+00 0.000000000000e+00 0.000000000000e+00 0.000000000000e+00 0.000000000000e+00 0.000000000000e+00 0.000000000000e+00 0.000000000000e+00 0.000000000000e+00 0.000000000000e+00 0.000000000000e+00 0.000000000000e+00 0.000000000000e+00 0.000000000000e+00 0.000000000000e+00 0.000000000000e+00 0.000000000000e+00 0.000000000000e+00 0.000000000000e+00 0.000000000000e+00 0.000000000000e+00 0.000000000000e+00 0.000000000000e+00 0.000000000000e+00 0.000000000000e+00 0.000000000000e+00 0.000000000000e+00 0.000000000000e+00 0.000000000000e+00 0.000000000000e+00 0.000000000000e+00 0.000000000000e+00 0.000000000000e+00 0.000000000000e+00 0.000000000000e+00 0.000000000000e+00 0.000000000000e+00 0.000000000000e+00 0.000000000000e+00 0.000000000000e+00 0.000000000000e+00 0.000000000000e+00 0.000000000000e+00 0.000000000000e+00 0.000000000000e+00 0.000000000000e+00 0.000000000000e+00 0.000000000000e+00 0.000000000000e+00 0.000000000000e+00 0.000000000000e+00 0.000000000000e+00 0.000000000000e+00 0.000000000000e+00 0.000000000000e+00 0.000000000000e+00 0.000000000000e+00 0.000000000000e+00 0.000000000000e+00 0.000000000000e+00 0.000000000000e+00 0.000000000000e+00 0.000000000000e+00 0.000000000000e+00 0.000000000000e+00 0.000000000000e+00 0.000000000000e+00 0.000000000000e+00 0.000000000000e+00 0.000000000000e+00 0.000000000000e+00 0.000000000000e+00 0.000000000000e+00 0.000000000000e+00 0.000000000000e+00 0.000000000000e+00 0.000000000000e+00 0.000000000000e+00 0.000000000000e+00 0.000000000000e+00 0.000000000000e+00 0.000000000000e+00 0.000000000000e+00 0.000000000000e+00 0.000000000000e+00 0.000000000000e+00 0.000000000000e+00 0.000000000000e+00 0.000000000000e+00 0.000000000000e+00 0.000000000000e+00 0.000000000000e+00 0.000000000000e+00 0.000000000000e+00 0.000000000000e+00 0.000000000000e+00 0.000000000000e+00 0.000000000000e+00 0.000000000000e+00 0.000000000000e+00 0.000000000000e+00 0.000000000000e+00 0.000000000000e+00 0.000000000000e+00 0.000000000000e+00 0.000000000000e+00 0.000000000000e+00 0.000000000000e+00 0.000000000000e+00 0.000000000000e+00 0.000000000000e+00 0.000000000000e+00 0.000000000000e+00 0.000000000000e+00 0.000000000000e+00 0.000000000000e+00 0.000000000000e+00 0.000000000000e+00 0.000000000000e+00 0.000000000000e+00 0.000000000000e+00 0.000000000000e+00 0.000000000000e+00 0.000000000000e+00 0.000000000000e+00 0.000000000000e+00 0.000000000000e+00 0.000000000000e+00 0.000000000000e+00 0.000000000000e+00 0.000000000000e+00 0.000000000000e+00 0.000000000000e+00 0.000000000000e+00 0.000000000000e+00 0.000000000000e+00 0.000000000000e+00 0.000000000000e+00 0.000000000000e+00 0.000000000000e+00 0.000000000000e+00 0.000000000000e+00 0.000000000000e+00 0.000000000000e+00 0.000000000000e+00 0.000000000000e+00 0.000000000000e+00 0.000000000000e+00 0.000000000000e+00 0.000000000000e+00 0.000000000000e+00 0.000000000000e+00 0.000000000000e+00 0.000000000000e+00 0.000000000000e+00 0.000000000000e+00 0.000000000000e+00 0.000000000000e+00 0.000000000000e+00 0.000000000000e+00 0.000000000000e+00 0.000000000000e+00 0.000000000000e+00 0.000000000000e+00 0.000000000000e+00 0.000000000000e+00 0.000000000000e+00 0.000000000000e+00 0.000000000000e+00 0.000000000000e+00 0.000000000000e+00 0.000000000000e+00 0.000000000000e+00 0.000000000000e+00 0.000000000000e+00 0.000000000000e+00 0.000000000000e+00 0.000000000000e+00 0.000000000000e+00 0.000000000000e+00 0.000000000000e+00 0.000000000000e+00 0.000000000000e+00 0.000000000000e+00 0.000000000000e+00 0.000000000000e+00 0.000000000000e+00 0.000000000000e+00 0.000000000000e+00 0.000000000000e+00 0.000000000000e+00 0.000000000000e+00 0.000000000000e+00 0.000000000000e+00 0.000000000000e+00 0.000000000000e+00 0.000000000000e+00 0.000000000000e+00 0.000000000000e+00 0.000000000000e+00 0.000000000000e+00 0.000000000000e+00 0.000000000000e+00 0.000000000000e+00 0.000000000000e+00 0.000000000000e+00 0.000000000000e+00 0.000000000000e+00 0.000000000000e+00 0.000000000000e+00 0.000000000000e+00 0.000000000000e+00 0.000000000000e+00 0.000000000000e+00 0.000000000000e+00 0.000000000000e+00 0.000000000000e+00 0.000000000000e+00 0.000000000000e+00 0.000000000000e+00 0.000000000000e+00 0.000000000000e+00 0.000000000000e+00 0.000000000000e+00 0.000000000000e+00 0.000000000000e+00 0.000000000000e+00 0.000000000000e+00 0.000000000000e+00 0.000000000000e+00 0.000000000000e+00 0.000000000000e+00 0.000000000000e+00 0.000000000000e+00 0.000000000000e+00 0.000000000000e+00 0.000000000000e+00 0.000000000000e+00 0.000000000000e+00 0.000000000000e+00 0.000000000000e+00 0.000000000000e+00 0.000000000000e+00 0.000000000000e+00 0.000000000000e+00 0.000000000000e+00 0.000000000000e+00 0.000000000000e+00 0.000000000000e+00 0.000000000000e+00 0.000000000000e+00 0.000000000000e+00 0.000000000000e+00 0.000000000000e+00 0.000000000000e+00 0.000000000000e+00 0.000000000000e+00 0.000000000000e+00 0.000000000000e+00 0.000000000000e+00 0.000000000000e+00 0.000000000000e+00 0.000000000000e+00 0.000000000000e+00 0.000000000000e+00 0.000000000000e+00 0.000000000000e+00 0.000000000000e+00 0.000000000000e+00 0.000000000000e+00 0.000000000000e+00 0.000000000000e+00 0.000000000000e+00 0.000000000000e+00 0.000000000000e+00 0.000000000000e+00 0.000000000000e+00 0.000000000000e+00 0.000000000000e+00 0.000000000000e+00 0.000000000000e+00 0.000000000000e+00 0.000000000000e+00 0.000000000000e+00 0.000000000000e+00 0.000000000000e+00 0.000000000000e+00 0.000000000000e+00 0.000000000000e+00 0.000000000000e+00 0.000000000000e+00 0.000000000000e+00 0.000000000000e+00 0.000000000000e+00 0.000000000000e+00 0.000000000000e+00 0.000000000000e+00 0.000000000000e+00 0.000000000000e+00 0.000000000000e+00 0.000000000000e+00 0.000000000000e+00 0.000000000000e+00 0.000000000000e+00 0.000000000000e+00 0.000000000000e+00 0.000000000000e+00 0.000000000000e+00 0.000000000000e+00 0.000000000000e+00 0.000000000000e+00 0.000000000000e+00 0.000000000000e+00 0.000000000000e+00 0.000000000000e+00 0.000000000000e+00 0.000000000000e+00 0.000000000000e+00 0.000000000000e+00 0.000000000000e+00 0.000000000000e+00 0.000000000000e+00 0.000000000000e+00 0.000000000000e+00 0.000000000000e+00 0.000000000000e+00 0.000000000000e+00 0.000000000000e+00 0.000000000000e+00 0.000000000000e+00 0.000000000000e+00 0.000000000000e+00 0.000000000000e+00 0.000000000000e+00 0.000000000000e+00 0.000000000000e+00 0.000000000000e+00 0.000000000000e+00 0.000000000000e+00 0.000000000000e+00 0.000000000000e+00 0.000000000000e+00 0.000000000000e+00 0.000000000000e+00 0.000000000000e+00 0.000000000000e+00 0.000000000000e+00 0.000000000000e+00 0.000000000000e+00 0.000000000000e+00 0.000000000000e+00 0.000000000000e+00 0.000000000000e+00 0.000000000000e+00 0.000000000000e+00 0.000000000000e+00 0.000000000000e+00 0.000000000000e+00 0.000000000000e+00 0.000000000000e+00 0.000000000000e+00 0.000000000000e+00 0.000000000000e+00 0.000000000000e+00 0.000000000000e+00 0.000000000000e+00 0.000000000000e+00 0.000000000000e+00 0.000000000000e+00 0.000000000000e+00 0.000000000000e+00 0.000000000000e+00 0.000000000000e+00 0.000000000000e+00 0.000000000000e+00 0.000000000000e+00 0.000000000000e+00 0.000000000000e+00 0.000000000000e+00 0.000000000000e+00 0.000000000000e+00 0.000000000000e+00 0.000000000000e+00 0.000000000000e+00 0.000000000000e+00 0.000000000000e+00 0.000000000000e+00 0.000000000000e+00 0.000000000000e+00 0.000000000000e+00 0.000000000000e+00 0.000000000000e+00 0.000000000000e+00 0.000000000000e+00 0.000000000000e+00 0.000000000000e+00 0.000000000000e+00 0.000000000000e+00 0.000000000000e+00 0.000000000000e+00 0.000000000000e+00 0.000000000000e+00 0.000000000000e+00 0.000000000000e+00 0.000000000000e+00 0.000000000000e+00 0.000000000000e+00 0.000000000000e+00 0.000000000000e+00 0.000000000000e+00 0.000000000000e+00 0.000000000000e+00 0.000000000000e+00 0.000000000000e+00 0.000000000000e+00 0.000000000000e+00 0.000000000000e+00 0.000000000000e+00 0.000000000000e+00 0.000000000000e+00 0.000000000000e+00 0.000000000000e+00 0.000000000000e+00 0.000000000000e+00 0.000000000000e+00 0.000000000000e+00 0.000000000000e+00 0.000000000000e+00 0.000000000000e+00 0.000000000000e+00 0.000000000000e+00 0.000000000000e+00 0.000000000000e+00 0.000000000000e+00 0.000000000000e+00 0.000000000000e+00 0.000000000000e+00 0.000000000000e+00 0.000000000000e+00 0.000000000000e+00 0.000000000000e+00 0.000000000000e+00 0.000000000000e+00 0.000000000000e+00 0.000000000000e+00 0.000000000000e+00 0.000000000000e+00 0.000000000000e+00 0.000000000000e+00 0.000000000000e+00 0.000000000000e+00 0.000000000000e+00 0.000000000000e+00 0.000000000000e+00 0.000000000000e+00 0.000000000000e+00 0.000000000000e+00 0.000000000000e+00 0.000000000000e+00 0.000000000000e+00 0.000000000000e+00 0.000000000000e+00 0.000000000000e+00 0.000000000000e+00 0.000000000000e+00 0.000000000000e+00 0.000000000000e+00 0.000000000000e+00 0.000000000000e+00 0.000000000000e+00 0.000000000000e+00 0.000000000000e+00 0.000000000000e+00 0.000000000000e+00 0.000000000000e+00 0.000000000000e+00 0.000000000000e+00 0.000000000000e+00 0.000000000000e+00 0.000000000000e+00 0.000000000000e+00 0.000000000000e+00 0.000000000000e+00 0.000000000000e+00 0.000000000000e+00 0.000000000000e+00 0.000000000000e+00 0.000000000000e+00 0.000000000000e+00 0.000000000000e+00 0.000000000000e+00 0.000000000000e+00 0.000000000000e+00 0.000000000000e+00 0.000000000000e+00 0.000000000000e+00 0.000000000000e+00 0.000000000000e+00 0.000000000000e+00 0.000000000000e+00 0.000000000000e+00 0.000000000000e+00 0.000000000000e+00 0.000000000000e+00 0.000000000000e+00 0.000000000000e+00 0.000000000000e+00 0.000000000000e+00 0.000000000000e+00 0.000000000000e+00 0.000000000000e+00 0.000000000000e+00 0.000000000000e+00 0.000000000000e+00 0.000000000000e+00 0.000000000000e+00 0.000000000000e+00 0.000000000000e+00 0.000000000000e+00 0.000000000000e+00 0.000000000000e+00 0.000000000000e+00 0.000000000000e+00 0.000000000000e+00 0.000000000000e+00 0.000000000000e+00 0.000000000000e+00 0.000000000000e+00 0.000000000000e+00 0.000000000000e+00 0.000000000000e+00 0.000000000000e+00 0.000000000000e+00 0.000000000000e+00 0.000000000000e+00 0.000000000000e+00 0.000000000000e+00 0.000000000000e+00 0.000000000000e+00 0.000000000000e+00 0.000000000000e+00 0.000000000000e+00 0.000000000000e+00 0.000000000000e+00 0.000000000000e+00 0.000000000000e+00 0.000000000000e+00 0.000000000000e+00 0.000000000000e+00 0.000000000000e+00 0.000000000000e+00 0.000000000000e+00 0.000000000000e+00 0.000000000000e+00 0.000000000000e+00 0.000000000000e+00 0.000000000000e+00 0.000000000000e+00 0.000000000000e+00 0.000000000000e+00 0.000000000000e+00 0.000000000000e+00 0.000000000000e+00 0.000000000000e+00 0.000000000000e+00 0.000000000000e+00 0.000000000000e+00 0.000000000000e+00 0.000000000000e+00 0.000000000000e+00 0.000000000000e+00 0.000000000000e+00 0.000000000000e+00 0.000000000000e+00 0.000000000000e+00 0.000000000000e+00 0.000000000000e+00 0.000000000000e+00 0.000000000000e+00 0.000000000000e+00 0.000000000000e+00 0.000000000000e+00 0.000000000000e+00 0.000000000000e+00 0.000000000000e+00 0.000000000000e+00 0.000000000000e+00 0.000000000000e+00 0.000000000000e+00 0.000000000000e+00 0.000000000000e+00 0.000000000000e+00 0.000000000000e+00 0.000000000000e+00 0.000000000000e+00 0.000000000000e+00 0.000000000000e+00 0.000000000000e+00 0.000000000000e+00 0.000000000000e+00 0.000000000000e+00 0.000000000000e+00 0.000000000000e+00 0.000000000000e+00 0.000000000000e+00 0.000000000000e+00 0.000000000000e+00 0.000000000000e+00 0.000000000000e+00 0.000000000000e+00 0.000000000000e+00 0.000000000000e+00 0.000000000000e+00 0.000000000000e+00 0.000000000000e+00 0.000000000000e+00 0.000000000000e+00 0.000000000000e+00 0.000000000000e+00 0.000000000000e+00 0.000000000000e+00 0.000000000000e+00 0.000000000000e+00 0.000000000000e+00 0.000000000000e+00 0.000000000000e+00 0.000000000000e+00 0.000000000000e+00 0.000000000000e+00 0.000000000000e+00 0.000000000000e+00 0.000000000000e+00 0.000000000000e+00 0.000000000000e+00 0.000000000000e+00 0.000000000000e+00 0.000000000000e+00 0.000000000000e+00 0.000000000000e+00 0.000000000000e+00 0.000000000000e+00 0.000000000000e+00 0.000000000000e+00 0.000000000000e+00 0.000000000000e+00 0.000000000000e+00 0.000000000000e+00 0.000000000000e+00 0.000000000000e+00 0.000000000000e+00 0.000000000000e+00 0.000000000000e+00 0.000000000000e+00 0.000000000000e+00 0.000000000000e+00 0.000000000000e+00 0.000000000000e+00 0.000000000000e+00 0.000000000000e+00 0.000000000000e+00 0.000000000000e+00 0.000000000000e+00 0.000000000000e+00 0.000000000000e+00 0.000000000000e+00 0.000000000000e+00 0.000000000000e+00 0.000000000000e+00 0.000000000000e+00 0.000000000000e+00 0.000000000000e+00 0.000000000000e+00 0.000000000000e+00 0.000000000000e+00 0.000000000000e+00 0.000000000000e+00 0.000000000000e+00 0.000000000000e+00 0.000000000000e+00 0.000000000000e+00 0.000000000000e+00 0.000000000000e+00 0.000000000000e+00 0.000000000000e+00 0.000000000000e+00 0.000000000000e+00 0.000000000000e+00 0.000000000000e+00 0.000000000000e+00 0.000000000000e+00 0.000000000000e+00 0.000000000000e+00 0.000000000000e+00 0.000000000000e+00 0.000000000000e+00 0.000000000000e+00 0.000000000000e+00 0.000000000000e+00 0.000000000000e+00 0.000000000000e+00 0.000000000000e+00 0.000000000000e+00 0.000000000000e+00 0.000000000000e+00 0.000000000000e+00 0.000000000000e+00 0.000000000000e+00 0.000000000000e+00 0.000000000000e+00 0.000000000000e+00 0.000000000000e+00 0.000000000000e+00 0.000000000000e+00 0.000000000000e+00 0.000000000000e+00 0.000000000000e+00 0.000000000000e+00 0.000000000000e+00 0.000000000000e+00 0.000000000000e+00 0.000000000000e+00 0.000000000000e+00 0.000000000000e+00 0.000000000000e+00 0.000000000000e+00 0.000000000000e+00 0.000000000000e+00 0.000000000000e+00 0.000000000000e+00 0.000000000000e+00 0.000000000000e+00 0.000000000000e+00 0.000000000000e+00 0.000000000000e+00 0.000000000000e+00 0.000000000000e+00 0.000000000000e+00 0.000000000000e+00 0.000000000000e+00 0.000000000000e+00 0.000000000000e+00 0.000000000000e+00 0.000000000000e+00 0.000000000000e+00 0.000000000000e+00 0.000000000000e+00 0.000000000000e+00 0.000000000000e+00 0.000000000000e+00 0.000000000000e+00 0.000000000000e+00 0.000000000000e+00 0.000000000000e+00 0.000000000000e+00 0.000000000000e+00 0.000000000000e+00 0.000000000000e+00 0.000000000000e+00 0.000000000000e+00 0.000000000000e+00 0.000000000000e+00 0.000000000000e+00 0.000000000000e+00 0.000000000000e+00 0.000000000000e+00 0.000000000000e+00 0.000000000000e+00 0.000000000000e+00 0.000000000000e+00 0.000000000000e+00 0.000000000000e+00 0.000000000000e+00 0.000000000000e+00 0.000000000000e+00 0.000000000000e+00 0.000000000000e+00 0.000000000000e+00 0.000000000000e+00 0.000000000000e+00 0.000000000000e+00 0.000000000000e+00 0.000000000000e+00 0.000000000000e+00 0.000000000000e+00 0.000000000000e+00 0.000000000000e+00 0.000000000000e+00 0.000000000000e+00 0.000000000000e+00 0.000000000000e+00 0.000000000000e+00 0.000000000000e+00 0.000000000000e+00 0.000000000000e+00 0.000000000000e+00 0.000000000000e+00 0.000000000000e+00 0.000000000000e+00 0.000000000000e+00 0.000000000000e+00 0.000000000000e+00 0.000000000000e+00 0.000000000000e+00 0.000000000000e+00 0.000000000000e+00 0.000000000000e+00 0.000000000000e+00 0.000000000000e+00 0.000000000000e+00 0.000000000000e+00 0.000000000000e+00 0.000000000000e+00 0.000000000000e+00 0.000000000000e+00 0.000000000000e+00 0.000000000000e+00 0.000000000000e+00 0.000000000000e+00 0.000000000000e+00 0.000000000000e+00 0.000000000000e+00 0.000000000000e+00 0.000000000000e+00 0.000000000000e+00 0.000000000000e+00 0.000000000000e+00 0.000000000000e+00 0.000000000000e+00 0.000000000000e+00 0.000000000000e+00 0.000000000000e+00 0.000000000000e+00 0.000000000000e+00 0.000000000000e+00 0.000000000000e+00 0.000000000000e+00 0.000000000000e+00 0.000000000000e+00 0.000000000000e+00 0.000000000000e+00 0.000000000000e+00 0.000000000000e+00 0.000000000000e+00 0.000000000000e+00 0.000000000000e+00 0.000000000000e+00 0.000000000000e+00 0.000000000000e+00 0.000000000000e+00 0.000000000000e+00 0.000000000000e+00 0.000000000000e+00 0.000000000000e+00 0.000000000000e+00 0.000000000000e+00 0.000000000000e+00 0.000000000000e+00 0.000000000000e+00 0.000000000000e+00 0.000000000000e+00 0.000000000000e+00 0.000000000000e+00 0.000000000000e+00 0.000000000000e+00 0.000000000000e+00 0.000000000000e+00 0.000000000000e+00 0.000000000000e+00 0.000000000000e+00 0.000000000000e+00 0.000000000000e+00 0.000000000000e+00 0.000000000000e+00 0.000000000000e+00 0.000000000000e+00 0.000000000000e+00 0.000000000000e+00 0.000000000000e+00 0.000000000000e+00 0.000000000000e+00 0.000000000000e+00 0.000000000000e+00 0.000000000000e+00 0.000000000000e+00 0.000000000000e+00 0.000000000000e+00 0.000000000000e+00 0.000000000000e+00 0.000000000000e+00 0.000000000000e+00 0.000000000000e+00 0.000000000000e+00 0.000000000000e+00 0.000000000000e+00 0.000000000000e+00 0.000000000000e+00 0.000000000000e+00 0.000000000000e+00 0.000000000000e+00 0.000000000000e+00 0.000000000000e+00 0.000000000000e+00 0.000000000000e+00 0.000000000000e+00 0.000000000000e+00 0.000000000000e+00 0.000000000000e+00 0.000000000000e+00 0.000000000000e+00 0.000000000000e+00 0.000000000000e+00 0.000000000000e+00 0.000000000000e+00 0.000000000000e+00 0.000000000000e+00 0.000000000000e+00 0.000000000000e+00 0.000000000000e+00 0.000000000000e+00 0.000000000000e+00 0.000000000000e+00 0.000000000000e+00 0.000000000000e+00 0.000000000000e+00 0.000000000000e+00 0.000000000000e+00 0.000000000000e+00 0.000000000000e+00 0.000000000000e+00 0.000000000000e+00 0.000000000000e+00 0.000000000000e+00 0.000000000000e+00 0.000000000000e+00 0.000000000000e+00 0.000000000000e+00 0.000000000000e+00 0.000000000000e+00 0.000000000000e+00 0.000000000000e+00 0.000000000000e+00 0.000000000000e+00 0.000000000000e+00 0.000000000000e+00 0.000000000000e+00 0.000000000000e+00 0.000000000000e+00 0.000000000000e+00 0.000000000000e+00 0.000000000000e+00 0.000000000000e+00 0.000000000000e+00 0.000000000000e+00 0.000000000000e+00 0.000000000000e+00 0.000000000000e+00 0.000000000000e+00 0.000000000000e+00 0.000000000000e+00 0.000000000000e+00 0.000000000000e+00 0.000000000000e+00 0.000000000000e+00 0.000000000000e+00 0.000000000000e+00 0.000000000000e+00 0.000000000000e+00 0.000000000000e+00 0.000000000000e+00 0.000000000000e+00 0.000000000000e+00 0.000000000000e+00 0.000000000000e+00 0.000000000000e+00 0.000000000000e+00 0.000000000000e+00 0.000000000000e+00 0.000000000000e+00 0.000000000000e+00 0.000000000000e+00 0.000000000000e+00 0.000000000000e+00 0.000000000000e+00 0.000000000000e+00 0.000000000000e+00 0.000000000000e+00 0.000000000000e+00 0.000000000000e+00 0.000000000000e+00 0.000000000000e+00 0.000000000000e+00 0.000000000000e+00 0.000000000000e+00 0.000000000000e+00 0.000000000000e+00 0.000000000000e+00 0.000000000000e+00 0.000000000000e+00 0.000000000000e+00 0.000000000000e+00 0.000000000000e+00 0.000000000000e+00 0.000000000000e+00 0.000000000000e+00 0.000000000000e+00 0.000000000000e+00 0.000000000000e+00 0.000000000000e+00 0.000000000000e+00 0.000000000000e+00 0.000000000000e+00 0.000000000000e+00 0.000000000000e+00 0.000000000000e+00 0.000000000000e+00 0.000000000000e+00 0.000000000000e+00 0.000000000000e+00 0.000000000000e+00 0.000000000000e+00 0.000000000000e+00 0.000000000000e+00 0.000000000000e+00 0.000000000000e+00 0.000000000000e+00 0.000000000000e+00 0.000000000000e+00 0.000000000000e+00 0.000000000000e+00 0.000000000000e+00 0.000000000000e+00 0.000000000000e+00 0.000000000000e+00 0.000000000000e+00 0.000000000000e+00 0.000000000000e+00 0.000000000000e+00 0.000000000000e+00 0.000000000000e+00 0.000000000000e+00 0.000000000000e+00 0.000000000000e+00 0.000000000000e+00 0.000000000000e+00 0.000000000000e+00 0.000000000000e+00 0.000000000000e+00 0.000000000000e+00 0.000000000000e+00 0.000000000000e+00 0.000000000000e+00 0.000000000000e+00 0.000000000000e+00 0.000000000000e+00 0.000000000000e+00 0.000000000000e+00 0.000000000000e+00 0.000000000000e+00 0.000000000000e+00 0.000000000000e+00 0.000000000000e+00 0.000000000000e+00 0.000000000000e+00 0.000000000000e+00 0.000000000000e+00 0.000000000000e+00 0.000000000000e+00 0.000000000000e+00 0.000000000000e+00 0.000000000000e+00 0.000000000000e+00 0.000000000000e+00 0.000000000000e+00 0.000000000000e+00 0.000000000000e+00 0.000000000000e+00 0.000000000000e+00 0.000000000000e+00 0.000000000000e+00 0.000000000000e+00 0.000000000000e+00 0.000000000000e+00 0.000000000000e+00 0.000000000000e+00 0.000000000000e+00 0.000000000000e+00 0.000000000000e+00 0.000000000000e+00 0.000000000000e+00 0.000000000000e+00 0.000000000000e+00 0.000000000000e+00 0.000000000000e+00 0.000000000000e+00 0.000000000000e+00 0.000000000000e+00 0.000000000000e+00 0.000000000000e+00 0.000000000000e+00 0.000000000000e+00 0.000000000000e+00 0.000000000000e+00 0.000000000000e+00 0.000000000000e+00 0.000000000000e+00 0.000000000000e+00 0.000000000000e+00 0.000000000000e+00 0.000000000000e+00 0.000000000000e+00 0.000000000000e+00 0.000000000000e+00 0.000000000000e+00 0.000000000000e+00 0.000000000000e+00 0.000000000000e+00 0.000000000000e+00 0.000000000000e+00 0.000000000000e+00 0.000000000000e+00 0.000000000000e+00 0.000000000000e+00 0.000000000000e+00 0.000000000000e+00 0.000000000000e+00 0.000000000000e+00 0.000000000000e+00 0.000000000000e+00 0.000000000000e+00 0.000000000000e+00 0.000000000000e+00 0.000000000000e+00 0.000000000000e+00 0.000000000000e+00 0.000000000000e+00 0.000000000000e+00 0.000000000000e+00 0.000000000000e+00 0.000000000000e+00 0.000000000000e+00 0.000000000000e+00 0.000000000000e+00 0.000000000000e+00 0.000000000000e+00 0.000000000000e+00 0.000000000000e+00 0.000000000000e+00 0.000000000000e+00 0.000000000000e+00 0.000000000000e+00 0.000000000000e+00 0.000000000000e+00 0.000000000000e+00 0.000000000000e+00 0.000000000000e+00 0.000000000000e+00 0.000000000000e+00 0.000000000000e+00 0.000000000000e+00 0.000000000000e+00 0.000000000000e+00 0.000000000000e+00 0.000000000000e+00 0.000000000000e+00 0.000000000000e+00 0.000000000000e+00 0.000000000000e+00 0.000000000000e+00 0.000000000000e+00 0.000000000000e+00 0.000000000000e+00 0.000000000000e+00 0.000000000000e+00 0.000000000000e+00 0.000000000000e+00 0.000000000000e+00 0.000000000000e+00 0.000000000000e+00 0.000000000000e+00 0.000000000000e+00 0.000000000000e+00 0.000000000000e+00 0.000000000000e+00 0.000000000000e+00 0.000000000000e+00 0.000000000000e+00 0.000000000000e+00 0.000000000000e+00 0.000000000000e+00 0.000000000000e+00 0.000000000000e+00 0.000000000000e+00 0.000000000000e+00 0.000000000000e+00 0.000000000000e+00 0.000000000000e+00 0.000000000000e+00 0.000000000000e+00 0.000000000000e+00 0.000000000000e+00 0.000000000000e+00 0.000000000000e+00 0.000000000000e+00 0.000000000000e+00 0.000000000000e+00 0.000000000000e+00 0.000000000000e+00 0.000000000000e+00 0.000000000000e+00 0.000000000000e+00 0.000000000000e+00 0.000000000000e+00 0.000000000000e+00 0.000000000000e+00 0.000000000000e+00 0.000000000000e+00 0.000000000000e+00 0.000000000000e+00 0.000000000000e+00 0.000000000000e+00 0.000000000000e+00 0.000000000000e+00 0.000000000000e+00 0.000000000000e+00 0.000000000000e+00 0.000000000000e+00 0.000000000000e+00 0.000000000000e+00 0.000000000000e+00 0.000000000000e+00 0.000000000000e+00 0.000000000000e+00 0.000000000000e+00 0.000000000000e+00 0.000000000000e+00 0.000000000000e+00 0.000000000000e+00 0.000000000000e+00 0.000000000000e+00 0.000000000000e+00 0.000000000000e+00 0.000000000000e+00 0.000000000000e+00 0.000000000000e+00 0.000000000000e+00 0.000000000000e+00 0.000000000000e+00 0.000000000000e+00 0.000000000000e+00 0.000000000000e+00 0.000000000000e+00 0.000000000000e+00 0.000000000000e+00 0.000000000000e+00 0.000000000000e+00 0.000000000000e+00 0.000000000000e+00 0.000000000000e+00 0.000000000000e+00 0.000000000000e+00 0.000000000000e+00 0.000000000000e+00 0.000000000000e+00 0.000000000000e+00 0.000000000000e+00 0.000000000000e+00 0.000000000000e+00 0.000000000000e+00 0.000000000000e+00 0.000000000000e+00 0.000000000000e+00 0.000000000000e+00 0.000000000000e+00 0.000000000000e+00 0.000000000000e+00 0.000000000000e+00 0.000000000000e+00 0.000000000000e+00 0.000000000000e+00 0.000000000000e+00 0.000000000000e+00 0.000000000000e+00 0.000000000000e+00 0.000000000000e+00 0.000000000000e+00 0.000000000000e+00 0.000000000000e+00 0.000000000000e+00 0.000000000000e+00 0.000000000000e+00 0.000000000000e+00 0.000000000000e+00 0.000000000000e+00 0.000000000000e+00 0.000000000000e+00 0.000000000000e+00 0.000000000000e+00 0.000000000000e+00 0.000000000000e+00 0.000000000000e+00 0.000000000000e+00 0.000000000000e+00 0.000000000000e+00 0.000000000000e+00 0.000000000000e+00 0.000000000000e+00 0.000000000000e+00 0.000000000000e+00 0.000000000000e+00 0.000000000000e+00 0.000000000000e+00 0.000000000000e+00 0.000000000000e+00 0.000000000000e+00 0.000000000000e+00 0.000000000000e+00 0.000000000000e+00 0.000000000000e+00 0.000000000000e+00 0.000000000000e+00 0.000000000000e+00 0.000000000000e+00 0.000000000000e+00 0.000000000000e+00 0.000000000000e+00 0.000000000000e+00 0.000000000000e+00 0.000000000000e+00 0.000000000000e+00 0.000000000000e+00 0.000000000000e+00 0.000000000000e+00 0.000000000000e+00 0.000000000000e+00 0.000000000000e+00 0.000000000000e+00 0.000000000000e+00 0.000000000000e+00 0.000000000000e+00 0.000000000000e+00 0.000000000000e+00 0.000000000000e+00 0.000000000000e+00 0.000000000000e+00 0.000000000000e+00 0.000000000000e+00 0.000000000000e+00 0.000000000000e+00 0.000000000000e+00 0.000000000000e+00 0.000000000000e+00 0.000000000000e+00 0.000000000000e+00 0.000000000000e+00 0.000000000000e+00 0.000000000000e+00 0.000000000000e+00 0.000000000000e+00 0.000000000000e+00 0.000000000000e+00 0.000000000000e+00 0.000000000000e+00 0.000000000000e+00 0.000000000000e+00 0.000000000000e+00 0.000000000000e+00 0.000000000000e+00 0.000000000000e+00 0.000000000000e+00 0.000000000000e+00 0.000000000000e+00 0.000000000000e+00 0.000000000000e+00 0.000000000000e+00 0.000000000000e+00 0.000000000000e+00 0.000000000000e+00 0.000000000000e+00 0.000000000000e+00 0.000000000000e+00 0.000000000000e+00 0.000000000000e+00 0.000000000000e+00 0.000000000000e+00 0.000000000000e+00 0.000000000000e+00 0.000000000000e+00 0.000000000000e+00 0.000000000000e+00 0.000000000000e+00 0.000000000000e+00 0.000000000000e+00 0.000000000000e+00 0.000000000000e+00 0.000000000000e+00 0.000000000000e+00 0.000000000000e+00 0.000000000000e+00 0.000000000000e+00 0.000000000000e+00 0.000000000000e+00 0.000000000000e+00 0.000000000000e+00 0.000000000000e+00 0.000000000000e+00 0.000000000000e+00 0.000000000000e+00 0.000000000000e+00 0.000000000000e+00 0.000000000000e+00 0.000000000000e+00 0.000000000000e+00 0.000000000000e+00 0.000000000000e+00 0.000000000000e+00 0.000000000000e+00 0.000000000000e+00 0.000000000000e+00 0.000000000000e+00 0.000000000000e+00 0.000000000000e+00 0.000000000000e+00 0.000000000000e+00 0.000000000000e+00 0.000000000000e+00 0.000000000000e+00 0.000000000000e+00 0.000000000000e+00 0.000000000000e+00 0.000000000000e+00 0.000000000000e+00 0.000000000000e+00 0.000000000000e+00 0.000000000000e+00 0.000000000000e+00 0.000000000000e+00 0.000000000000e+00 0.000000000000e+00 0.000000000000e+00 0.000000000000e+00 0.000000000000e+00 0.000000000000e+00 0.000000000000e+00 0.000000000000e+00 0.000000000000e+00 0.000000000000e+00 0.000000000000e+00 0.000000000000e+00 0.000000000000e+00 0.000000000000e+00 0.000000000000e+00 0.000000000000e+00 0.000000000000e+00 0.000000000000e+00 0.000000000000e+00 0.000000000000e+00 0.000000000000e+00 0.000000000000e+00 0.000000000000e+00 0.000000000000e+00 0.000000000000e+00 0.000000000000e+00 0.000000000000e+00 0.000000000000e+00 0.000000000000e+00 0.000000000000e+00 0.000000000000e+00 0.000000000000e+00 0.000000000000e+00 0.000000000000e+00 0.000000000000e+00 0.000000000000e+00 0.000000000000e+00 0.000000000000e+00 0.000000000000e+00 0.000000000000e+00 0.000000000000e+00 0.000000000000e+00 0.000000000000e+00 0.000000000000e+00 0.000000000000e+00 0.000000000000e+00 0.000000000000e+00 0.000000000000e+00 0.000000000000e+00 0.000000000000e+00 0.000000000000e+00 0.000000000000e+00 0.000000000000e+00 0.000000000000e+00 0.000000000000e+00 0.000000000000e+00 0.000000000000e+00 0.000000000000e+00 0.000000000000e+00 0.000000000000e+00 0.000000000000e+00 0.000000000000e+00 0.000000000000e+00 0.000000000000e+00 0.000000000000e+00 0.000000000000e+00 0.000000000000e+00 0.000000000000e+00 0.000000000000e+00 0.000000000000e+00 0.000000000000e+00 0.000000000000e+00 0.000000000000e+00 0.000000000000e+00 0.000000000000e+00 0.000000000000e+00 0.000000000000e+00 0.000000000000e+00 0.000000000000e+00 0.000000000000e+00 0.000000000000e+00 0.000000000000e+00 0.000000000000e+00 0.000000000000e+00 0.000000000000e+00 0.000000000000e+00 0.000000000000e+00 0.000000000000e+00 0.000000000000e+00 0.000000000000e+00 0.000000000000e+00 0.000000000000e+00 0.000000000000e+00 0.000000000000e+00 0.000000000000e+00 0.000000000000e+00 0.000000000000e+00 0.000000000000e+00 0.000000000000e+00 0.000000000000e+00 0.000000000000e+00 0.000000000000e+00 0.000000000000e+00 0.000000000000e+00 0.000000000000e+00 0.000000000000e+00 0.000000000000e+00 0.000000000000e+00 0.000000000000e+00 0.000000000000e+00 0.000000000000e+00 0.000000000000e+00 0.000000000000e+00 0.000000000000e+00 0.000000000000e+00 0.000000000000e+00 0.000000000000e+00 0.000000000000e+00 0.000000000000e+00 0.000000000000e+00 0.000000000000e+00 0.000000000000e+00 0.000000000000e+00 0.000000000000e+00 0.000000000000e+00 0.000000000000e+00 0.000000000000e+00 0.000000000000e+00 0.000000000000e+00 0.000000000000e+00 0.000000000000e+00 0.000000000000e+00 0.000000000000e+00 0.000000000000e+00 0.000000000000e+00 0.000000000000e+00 0.000000000000e+00 0.000000000000e+00 0.000000000000e+00 0.000000000000e+00 0.000000000000e+00 0.000000000000e+00 0.000000000000e+00 0.000000000000e+00 0.000000000000e+00 0.000000000000e+00 0.000000000000e+00 0.000000000000e+00 0.000000000000e+00 0.000000000000e+00 0.000000000000e+00 0.000000000000e+00 0.000000000000e+00 0.000000000000e+00 0.000000000000e+00 0.000000000000e+00 0.000000000000e+00 0.000000000000e+00 0.000000000000e+00 0.000000000000e+00 0.000000000000e+00 0.000000000000e+00 0.000000000000e+00 0.000000000000e+00 0.000000000000e+00 0.000000000000e+00 0.000000000000e+00 0.000000000000e+00 0.000000000000e+00 0.000000000000e+00 0.000000000000e+00 0.000000000000e+00 0.000000000000e+00 0.000000000000e+00 0.000000000000e+00 0.000000000000e+00 0.000000000000e+00 0.000000000000e+00 0.000000000000e+00 0.000000000000e+00 0.000000000000e+00 0.000000000000e+00 0.000000000000e+00 0.000000000000e+00 0.000000000000e+00 0.000000000000e+00 0.000000000000e+00 0.000000000000e+00 0.000000000000e+00 0.000000000000e+00 0.000000000000e+00 0.000000000000e+00 0.000000000000e+00 0.000000000000e+00 0.000000000000e+00 0.000000000000e+00 0.000000000000e+00 0.000000000000e+00 0.000000000000e+00 0.000000000000e+00 0.000000000000e+00 0.000000000000e+00 0.000000000000e+00 0.000000000000e+00 0.000000000000e+00 0.000000000000e+00 0.000000000000e+00 0.000000000000e+00 0.000000000000e+00 0.000000000000e+00 0.000000000000e+00 0.000000000000e+00 0.000000000000e+00 0.000000000000e+00 0.000000000000e+00 0.000000000000e+00 0.000000000000e+00 0.000000000000e+00 0.000000000000e+00 0.000000000000e+00 0.000000000000e+00 0.000000000000e+00 0.000000000000e+00 0.000000000000e+00 0.000000000000e+00 0.000000000000e+00 0.000000000000e+00 0.000000000000e+00 0.000000000000e+00 0.000000000000e+00 0.000000000000e+00 0.000000000000e+00 0.000000000000e+00 0.000000000000e+00 0.000000000000e+00 0.000000000000e+00 0.000000000000e+00 0.000000000000e+00 0.000000000000e+00 0.000000000000e+00 0.000000000000e+00 0.000000000000e+00 0.000000000000e+00 0.000000000000e+00 0.000000000000e+00 0.000000000000e+00 0.000000000000e+00 0.000000000000e+00 0.000000000000e+00 0.000000000000e+00 0.000000000000e+00 0.000000000000e+00 0.000000000000e+00 0.000000000000e+00 0.000000000000e+00 0.000000000000e+00 0.000000000000e+00 0.000000000000e+00 0.000000000000e+00 0.000000000000e+00 0.000000000000e+00 0.000000000000e+00 0.000000000000e+00 0.000000000000e+00 0.000000000000e+00 0.000000000000e+00 0.000000000000e+00 0.000000000000e+00 0.000000000000e+00 0.000000000000e+00 0.000000000000e+00 0.000000000000e+00 0.000000000000e+00 0.000000000000e+00 0.000000000000e+00 0.000000000000e+00 0.000000000000e+00 0.000000000000e+00 0.000000000000e+00 0.000000000000e+00 0.000000000000e+00 0.000000000000e+00 0.000000000000e+00 0.000000000000e+00 0.000000000000e+00 0.000000000000e+00 0.000000000000e+00 0.000000000000e+00 0.000000000000e+00 0.000000000000e+00 0.000000000000e+00 0.000000000000e+00 0.000000000000e+00 0.000000000000e+00 0.000000000000e+00 0.000000000000e+00 0.000000000000e+00 0.000000000000e+00 0.000000000000e+00 0.000000000000e+00 0.000000000000e+00 0.000000000000e+00 0.000000000000e+00 0.000000000000e+00 0.000000000000e+00 0.000000000000e+00 0.000000000000e+00 0.000000000000e+00 0.000000000000e+00 0.000000000000e+00 0.000000000000e+00 0.000000000000e+00 0.000000000000e+00 0.000000000000e+00 0.000000000000e+00 0.000000000000e+00 0.000000000000e+00 0.000000000000e+00 0.000000000000e+00 0.000000000000e+00 0.000000000000e+00 0.000000000000e+00 0.000000000000e+00 0.000000000000e+00 0.000000000000e+00 0.000000000000e+00 0.000000000000e+00 0.000000000000e+00 0.000000000000e+00 0.000000000000e+00 0.000000000000e+00 0.000000000000e+00 0.000000000000e+00 0.000000000000e+00 0.000000000000e+00 0.000000000000e+00 0.000000000000e+00 0.000000000000e+00 0.000000000000e+00 0.000000000000e+00 0.000000000000e+00 0.000000000000e+00 0.000000000000e+00 0.000000000000e+00 0.000000000000e+00 0.000000000000e+00 0.000000000000e+00 0.000000000000e+00 0.000000000000e+00 0.000000000000e+00 0.000000000000e+00 0.000000000000e+00 0.000000000000e+00 0.000000000000e+00 0.000000000000e+00 0.000000000000e+00 0.000000000000e+00 0.000000000000e+00 0.000000000000e+00 0.000000000000e+00 0.000000000000e+00 0.000000000000e+00 0.000000000000e+00 0.000000000000e+00 0.000000000000e+00 0.000000000000e+00 0.000000000000e+00 0.000000000000e+00 0.000000000000e+00 0.000000000000e+00 0.000000000000e+00 0.000000000000e+00 0.000000000000e+00 0.000000000000e+00 0.000000000000e+00 0.000000000000e+00 0.000000000000e+00 0.000000000000e+00 0.000000000000e+00 0.000000000000e+00 0.000000000000e+00 0.000000000000e+00 0.000000000000e+00 0.000000000000e+00 0.000000000000e+00 0.000000000000e+00 0.000000000000e+00 0.000000000000e+00 0.000000000000e+00 0.000000000000e+00 0.000000000000e+00 0.000000000000e+00 0.000000000000e+00 0.000000000000e+00 0.000000000000e+00 0.000000000000e+00 0.000000000000e+00 0.000000000000e+00 0.000000000000e+00 0.000000000000e+00 0.000000000000e+00 0.000000000000e+00 0.000000000000e+00 0.000000000000e+00 0.000000000000e+00 0.000000000000e+00 0.000000000000e+00 0.000000000000e+00 0.000000000000e+00 0.000000000000e+00 0.000000000000e+00 0.000000000000e+00 0.000000000000e+00 0.000000000000e+00 0.000000000000e+00 0.000000000000e+00 0.000000000000e+00 0.000000000000e+00 0.000000000000e+00 0.000000000000e+00 0.000000000000e+00 0.000000000000e+00 0.000000000000e+00 0.000000000000e+00 0.000000000000e+00 0.000000000000e+00 0.000000000000e+00 0.000000000000e+00 0.000000000000e+00 0.000000000000e+00 0.000000000000e+00 0.000000000000e+00 0.000000000000e+00 0.000000000000e+00 0.000000000000e+00 0.000000000000e+00 0.000000000000e+00 0.000000000000e+00 0.000000000000e+00 0.000000000000e+00 0.000000000000e+00 0.000000000000e+00 0.000000000000e+00 0.000000000000e+00 0.000000000000e+00 0.000000000000e+00 0.000000000000e+00 0.000000000000e+00 0.000000000000e+00 0.000000000000e+00 0.000000000000e+00 0.000000000000e+00 0.000000000000e+00 0.000000000000e+00 0.000000000000e+00 0.000000000000e+00 0.000000000000e+00 0.000000000000e+00 0.000000000000e+00 0.000000000000e+00 0.000000000000e+00 0.000000000000e+00 0.000000000000e+00 0.000000000000e+00 0.000000000000e+00 0.000000000000e+00 0.000000000000e+00 0.000000000000e+00 0.000000000000e+00 0.000000000000e+00 0.000000000000e+00 0.000000000000e+00 0.000000000000e+00 0.000000000000e+00 0.000000000000e+00 0.000000000000e+00 0.000000000000e+00 0.000000000000e+00 0.000000000000e+00 0.000000000000e+00 0.000000000000e+00 0.000000000000e+00 0.000000000000e+00 0.000000000000e+00 0.000000000000e+00 0.000000000000e+00 0.000000000000e+00 0.000000000000e+00 0.000000000000e+00 0.000000000000e+00 0.000000000000e+00 0.000000000000e+00 0.000000000000e+00 0.000000000000e+00 0.000000000000e+00 0.000000000000e+00 0.000000000000e+00 0.000000000000e+00 0.000000000000e+00 0.000000000000e+00 0.000000000000e+00 0.000000000000e+00 0.000000000000e+00 0.000000000000e+00 0.000000000000e+00 0.000000000000e+00 0.000000000000e+00 0.000000000000e+00 0.000000000000e+00 0.000000000000e+00 0.000000000000e+00 0.000000000000e+00 0.000000000000e+00 0.000000000000e+00 0.000000000000e+00 0.000000000000e+00 0.000000000000e+00 0.000000000000e+00 0.000000000000e+00 0.000000000000e+00 0.000000000000e+00 0.000000000000e+00 0.000000000000e+00 0.000000000000e+00 0.000000000000e+00 0.000000000000e+00 0.000000000000e+00 0.000000000000e+00 0.000000000000e+00 0.000000000000e+00 0.000000000000e+00 0.000000000000e+00 0.000000000000e+00 0.000000000000e+00 0.000000000000e+00 0.000000000000e+00 0.000000000000e+00 0.000000000000e+00 0.000000000000e+00 0.000000000000e+00 0.000000000000e+00 0.000000000000e+00 0.000000000000e+00 0.000000000000e+00 0.000000000000e+00 0.000000000000e+00 0.000000000000e+00 0.000000000000e+00 0.000000000000e+00 0.000000000000e+00 0.000000000000e+00 0.000000000000e+00 0.000000000000e+00 0.000000000000e+00 0.000000000000e+00 0.000000000000e+00 0.000000000000e+00 0.000000000000e+00 0.000000000000e+00 0.000000000000e+00 0.000000000000e+00 0.000000000000e+00 0.000000000000e+00 0.000000000000e+00 0.000000000000e+00 0.000000000000e+00 0.000000000000e+00 0.000000000000e+00 0.000000000000e+00 0.000000000000e+00 0.000000000000e+00 0.000000000000e+00 0.000000000000e+00 0.000000000000e+00 0.000000000000e+00 0.000000000000e+00 0.000000000000e+00 0.000000000000e+00 0.000000000000e+00 0.000000000000e+00 0.000000000000e+00 0.000000000000e+00 0.000000000000e+00 0.000000000000e+00 0.000000000000e+00 0.000000000000e+00 0.000000000000e+00 0.000000000000e+00 0.000000000000e+00 0.000000000000e+00 0.000000000000e+00 0.000000000000e+00 0.000000000000e+00 0.000000000000e+00 
        </DataArray>
        <DataArray type="Float64" Name="DISPLACEMENT" NumberOfComponents="3" format="ascii">
          3.297296343970e-05 0.000000000000e+00 -6.100000000000e-04 3.663662952190e-05 0.000000000000e+00 -6.100000000000e-04 3.627417672507e-05 3.550561820411e-06 -6.100000000000e-04 3.586466989486e-06 3.623048592129e-05 -6.100000000000e-04 0.000000000000e+00 3.656347631261e-05 -6.100000000000e-04 0.000000000000e+00 3.290713259875e-05 -6.100000000000e-04 1.115416000964e-05 3.003537004084e-05 -6.100000000000e-04 1.405160357957e-05 3.376780801603e-05 -6.100000000000e-04 1.061226917462e-05 3.483265137260e-05 -6.100000000000e-04 3.485376797757e-05 1.054258208613e-05 -6.100000000000e-04 3.379580981778e-05 1.398404119302e-05 -6.100000000000e-04 3.037923061423e-05 1.085932378505e-05 -6.100000000000e-04 2.312275379791e-05 2.812232560390e-05 -6.100000000000e-04 2.034342745677e-05 3.039430892517e-05 -6.100000000000e-04 1.934766804376e-05 2.634021859261e-05 -6.100000000000e-04 5.999983705135e-06 1.183823259311e-05 -6.100000000001e-04 9.854566792339e-06 8.642747856027e-06 -6.100000000000e-04 9.385503571276e-06 1.281389456727e-05 -6.100000000000e-04 1.275600791118e-05 1.182291417111e-05 -6.100000000000e-04 7.325146906373e-06 1.594148872174e-05 -6.100000000000e-04 1.648648064597e-05 3.539702625552e-06 -6.100000000000e-04 1.465464897870e-05 0.000000000000e+00 -6.100000000000e-04 1.831831023445e-05 0.000000000000e+00 -6.100000000000e-04 3.539379455399e-06 1.645357446263e-05 -6.100000000000e-04 0.000000000000e+00 1.828174763311e-05 -6.100000000000e-04 0.000000000000e+00 1.462540001425e-05 -6.100000000000e-04 1.455460917368e-05 2.348072801140e-05 -6.100000000000e-04 1.061953006580e-05 2.331532098753e-05 -6.100000000000e-04 1.267447901522e-05 1.958015999983e-05 -6.100000000000e-04 3.591172671000e-05 7.101123924151e-06 -6.100000000000e-04 3.238216152429e-05 3.859274668808e-06 -6.100000000000e-04 2.930929887387e-05 0.000000000000e+00 -6.100000000001e-04 2.712018274760e-05 1.822647936512e-05 -6.100000000000e-04 2.300702466830e-05 1.785240830916e-05 -6.100000000000e-04 2.678222870336e-05 1.378923939596e-05 -6.100000000000e-04 3.849278989895e-06 3.234997943365e-05 -6.100000000000e-04 7.172934749350e-06 3.589749529133e-05 -6.100000000000e-04 0.000000000000e+00 2.925078777797e-05 -6.100000000001e-04 2.226363477590e-05 1.323389134594e-05 -6.100000000000e-04 2.415379134370e-05 1.053166771626e-05 -6.100000000000e-04 8.569384610770e-06 3.584913054577e-06 -6.100000000000e-04 7.327325790775e-06 0.000000000000e+00 -6.100000000000e-04 1.099098741386e-05 0.000000000000e+00 -6.100000000000e-04 1.232063927540e-05 5.147177765364e-06 -6.100000000000e-04 3.574936776108e-06 8.561226727019e-06 -6.100000000000e-04 0.000000000000e+00 1.096905162506e-05 -6.100000000000e-04 0.000000000000e+00 7.312702281328e-06 -6.100000000000e-04 1.578819455950e-05 1.546183837187e-05 -6.100000000000e-04 1.607629875148e-05 1.988144335972e-05 -6.100000000000e-04 1.897086431356e-05 1.853802024067e-05 -6.100000000000e-04 1.882042525117e-05 2.265580622030e-05 -6.100000000000e-04 1.107124914229e-05 1.588404174116e-05 -6.100000000000e-04 2.054161406207e-05 9.114458282257e-06 -6.100000000000e-04 1.900520038198e-05 1.272420394263e-05 -6.100000000000e-04 8.538515066092e-06 1.982923875794e-05 -6.100000000000e-04 8.021268569367e-06 3.255075554345e-05 -6.100000000000e-04 6.553434768939e-06 2.935346077935e-05 -6.100000000000e-04 3.257737892713e-05 7.959438431612e-06 -6.100000000000e-04 2.946478822242e-05 6.533632895348e-06 -6.100000000000e-04 2.678334337837e-05 8.943253244421e-06 -6.100000000001e-04 2.571486380442e-05 4.325963151013e-06 -6.100000000000e-04 8.725070707078e-06 2.650377354178e-05 -6.100000000001e-04 4.330006405926e-06 2.570014348923e-05 -6.100000000000e-04 2.881739855358e-05 3.247566450574e-06 -6.100000000001e-04 2.564563520608e-05 0.000000000000e+00 -6.100000000000e-04 3.250543139777e-06 2.879928496757e-05 -6.100000000000e-04 0.000000000000e+00 2.559444186080e-05 -6.100000000000e-04 1.719751530900e-05 3.208105810716e-05 -6.100000000000e-04 1.441360369599e-05 3.035580435700e-05 -6.100000000000e-04 2.560883539184e-05 2.108735158972e-05 -6.100000000000e-04 3.043491070255e-05 2.028260543151e-05 -6.100000000000e-04 2.816849488181e-05 2.306647401838e-05 -6.100000000000e-04 2.590208030578e-05 2.585034280824e-05 -6.100000000000e-04 2.261515555450e-05 2.231480681251e-05 -6.100000000000e-04 1.654149400406e-05 1.068045082138e-05 -6.100000000000e-04 1.729363965485e-05 7.342101942926e-06 -6.100000000000e-04 2.913496595595e-06 1.958210387757e-05 -6.100000000000e-04 0.000000000000e+00 2.193809488181e-05 -6.100000000001e-04 1.960661033597e-05 2.910555679560e-06 -6.100000000000e-04 2.198197225420e-05 0.000000000000e+00 -6.100000000000e-04 1.748410677174e-05 2.891532114307e-05 -6.100000000000e-04 1.508521575911e-05 2.698475591584e-05 -6.100000000000e-04 1.980527003260e-05 1.551095835217e-05 -6.100000000000e-04 7.467792770867e-06 2.346827053873e-05 -6.100000000000e-04 5.258187124062e-06 2.174550989747e-05 -6.100000000000e-04 2.386954556546e-05 7.635068627999e-06 -6.100000000000e-04 2.198626258460e-05 5.387506607445e-06 -6.100000000000e-04 3.066814063423e-05 1.397363597245e-05 -6.100000000000e-04 3.211535963204e-05 1.713332288868e-05 -6.100000000001e-04 1.414640377539e-05 7.844139503448e-06 -6.100000000000e-04 2.828200705936e-06 2.305579560261e-05 -6.100000000000e-04 2.307588396785e-05 2.829604354237e-06 -6.100000000000e-04 2.945649048902e-06 2.944225802434e-06 -6.100000000000e-04 0.000000000000e+00 0.000000000000e+00 -6.100000000001e-04 3.663664144011e-06 0.000000000000e+00 -6.100000000000e-04 0.000000000000e+00 3.656351862226e-06 -6.100000000000e-04 2.215592832719e-05 2.528088688406e-05 -6.100000000001e-04 2.080226298684e-05 2.032412578932e-05 -6.100000000000e-04 1.238080840194e-05 2.677923519249e-05 -6.100000000000e-04 5.517650331111e-06 1.871602416060e-05 -6.100000000000e-04 1.915389818879e-05 5.651521956037e-06 -6.100000000000e-04 1.282281886681e-05 2.189704406984e-06 -6.100000000000e-04 2.184578625705e-06 1.279722615088e-05 -6.100000000000e-04 5.710208838118e-06 2.325944064145e-06 -6.100000000000e-04 4.935628634313e-06 5.115330565127e-06 -6.100000000000e-04 2.325782737567e-06 5.703614584468e-06 -6.100000000000e-04 6.547863002315e-06 7.555596098221e-06 -6.100000000001e-04 2.936393634731e-05 1.652001033284e-05 -6.100000000000e-04 1.700999756507e-05 2.563449819785e-05 -6.100000000000e-04 3.297297495031e-05 0.000000000000e+00 0.000000000000e+00 3.663664053766e-05 0.000000000000e+00 0.000000000000e+00 3.627418771574e-05 3.550563108536e-06 0.000000000000e+00 3.586469069752e-06 3.623049666503e-05 0.000000000000e+00 0.000000000000e+00 3.656348697555e-05 0.000000000000e+00 0.000000000000e+00 3.290714277438e-05 0.000000000000e+00 1.064352283168e-05 3.053874519262e-05 0.000000000000e+00 1.405160985835e-05 3.376781591450e-05 0.000000000000e+00 1.061227413371e-05 3.483266064831e-05 0.000000000000e+00 3.485377649627e-05 1.054258483482e-05 0.000000000000e+00 3.379581771161e-05 1.398404389650e-05 0.000000000000e+00 3.073975618695e-05 1.090239301996e-05 0.000000000000e+00 2.312276156660e-05 2.812233009296e-05 0.000000000000e+00 2.034343514949e-05 3.039431397698e-05 0.000000000000e+00 1.972445975413e-05 2.671181111507e-05 0.000000000000e+00 5.943406925390e-06 1.177173215683e-05 0.000000000000e+00 9.823459172541e-06 8.713269655740e-06 0.000000000000e+00 9.363332480752e-06 1.280459102931e-05 0.000000000000e+00 1.273229800800e-05 1.184346330732e-05 0.000000000000e+00 7.295442135485e-06 1.586720410777e-05 0.000000000000e+00 1.597783056164e-05 3.956139309637e-06 0.000000000000e+00 1.465465345633e-05 0.000000000000e+00 0.000000000000e+00 1.831831661486e-05 0.000000000000e+00 0.000000000000e+00 3.426999639420e-06 1.597625222310e-05 0.000000000000e+00 0.000000000000e+00 1.828175545276e-05 0.000000000000e+00 0.000000000000e+00 1.462540647892e-05 0.000000000000e+00 1.454285576295e-05 2.345875693440e-05 0.000000000000e+00 1.061983842646e-05 2.332215053135e-05 0.000000000000e+00 1.267326612993e-05 1.957825015939e-05 0.000000000000e+00 3.591173648178e-05 7.101126336210e-06 0.000000000000e+00 3.216544178016e-05 4.021586909188e-06 0.000000000000e+00 2.930930948296e-05 0.000000000000e+00 0.000000000000e+00 2.720248093872e-05 1.798192369902e-05 0.000000000000e+00 2.309611765396e-05 1.782037115494e-05 0.000000000000e+00 2.685609189543e-05 1.385835128455e-05 0.000000000000e+00 4.026803572743e-06 3.210715398763e-05 0.000000000000e+00 7.172938156027e-06 3.589750568605e-05 0.000000000000e+00 0.000000000000e+00 2.925079737142e-05 0.000000000000e+00 2.228838821950e-05 1.324818591935e-05 0.000000000000e+00 2.417803283854e-05 1.058133366298e-05 0.000000000000e+00 8.679621210784e-06 3.947064570081e-06 0.000000000000e+00 7.327327575045e-06 0.000000000000e+00 0.000000000000e+00 1.099099056118e-05 0.000000000000e+00 0.000000000000e+00 1.216837030962e-05 5.353248224015e-06 0.000000000000e+00 3.115550013400e-06 8.701895597849e-06 0.000000000000e+00 0.000000000000e+00 1.096905674108e-05 0.000000000000e+00 0.000000000000e+00 7.312705998736e-06 0.000000000000e+00 1.578609048096e-05 1.546295853741e-05 0.000000000000e+00 1.607996679102e-05 1.987516959181e-05 0.000000000000e+00 1.898895450267e-05 1.852647582721e-05 0.000000000000e+00 1.884785932917e-05 2.264656642558e-05 0.000000000000e+00 1.106208655661e-05 1.587521998751e-05 0.000000000000e+00 2.053444104029e-05 9.160008290481e-06 0.000000000000e+00 1.900453876685e-05 1.273152594710e-05 0.000000000000e+00 8.543634873438e-06 1.982145308018e-05 0.000000000000e+00 7.809318119111e-06 3.255287469420e-05 0.000000000000e+00 6.523072012556e-06 2.934224531375e-05 0.000000000000e+00 3.263092091527e-05 7.833990984384e-06 0.000000000000e+00 2.946196535384e-05 6.610770806910e-06 0.000000000000e+00 2.685166683982e-05 9.078059501607e-06 0.000000000000e+00 2.566603923874e-05 4.908862201135e-06 0.000000000000e+00 8.717940726195e-06 2.656021883432e-05 0.000000000000e+00 4.802573521597e-06 2.550779143973e-05 0.000000000000e+00 2.847108813594e-05 3.100321694974e-06 0.000000000000e+00 2.564564445379e-05 0.000000000000e+00 0.000000000000e+00 3.072983522509e-06 2.839228113255e-05 0.000000000000e+00 0.000000000000e+00 2.559445086522e-05 0.000000000000e+00 1.719752247725e-05 3.208106480260e-05 0.000000000000e+00 1.440134919643e-05 2.978080020297e-05 0.000000000000e+00 2.623155363974e-05 2.118978995495e-05 0.000000000000e+00 3.043491765053e-05 2.028260796986e-05 0.000000000000e+00 2.816850270817e-05 2.306647701193e-05 0.000000000000e+00 2.590208841649e-05 2.585034686913e-05 0.000000000000e+00 2.275768104977e-05 2.214705205700e-05 0.000000000000e+00 1.650620233655e-05 1.071229207608e-05 0.000000000000e+00 1.717191005122e-05 7.438357955339e-06 0.000000000000e+00 2.809587742942e-06 1.993421845511e-05 0.000000000000e+00 0.000000000000e+00 2.193810363283e-05 0.000000000000e+00 2.004865601368e-05 2.952749751622e-06 0.000000000000e+00 2.198198021136e-05 0.000000000000e+00 0.000000000000e+00 1.726664055890e-05 2.856372743719e-05 0.000000000000e+00 1.502898184616e-05 2.682228313218e-05 0.000000000000e+00 1.982445745373e-05 1.550709362414e-05 0.000000000000e+00 7.560327003994e-06 2.345461720674e-05 0.000000000000e+00 5.286634026753e-06 2.176426315791e-05 0.000000000000e+00 2.388631034112e-05 7.788422105109e-06 0.000000000000e+00 2.203562264982e-05 5.471280138047e-06 0.000000000000e+00 3.060376288583e-05 1.450488464084e-05 0.000000000000e+00 3.211536698496e-05 1.713332560321e-05 0.000000000000e+00 1.401721953112e-05 7.958936065554e-06 0.000000000000e+00 2.586232097295e-06 2.295710743131e-05 0.000000000000e+00 2.306733904448e-05 2.656029770141e-06 0.000000000000e+00 2.702618072109e-06 2.791063818958e-06 0.000000000000e+00 0.000000000000e+00 0.000000000000e+00 0.000000000000e+00 3.663664534802e-06 0.000000000000e+00 0.000000000000e+00 0.000000000000e+00 3.656354109618e-06 0.000000000000e+00 2.204050722646e-05 2.509217955393e-05 0.000000000000e+00 2.085100404620e-05 2.027551928159e-05 0.000000000000e+00 1.229134650799e-05 2.675833726147e-05 0.000000000000e+00 5.479204092874e-06 1.868695060969e-05 0.000000000000e+00 1.912231282165e-05 5.764543853704e-06 0.000000000000e+00 1.250092766162e-05 2.613055089992e-06 0.000000000000e+00 2.479320418964e-06 1.243445953836e-05 0.000000000000e+00 5.449638306264e-06 2.371428811058e-06 0.000000000000e+00 4.786129801734e-06 5.156293087104e-06 0.000000000000e+00 2.140635862709e-06 5.530352569702e-06 0.000000000000e+00 6.444762809843e-06 7.654278806908e-06 0.000000000000e+00 2.944968436084e-05 1.674540555788e-05 0.000000000000e+00 1.702690902001e-05 2.560561349956e-05 0.000000000000e+00 3.663662953082e-05 0.000000000000e+00 -5.982692293408e-04 3.663664049479e-05 0.000000000000e+00 -1.173077092249e-05 0.000000000000e+00 0.000000000000e+00 -1.173076984460e-05 0.000000000000e+00 0.000000000000e+00 -5.982692329885e-04 3.187484191330e-05 0.000000000000e+00 -3.331276602042e-04 3.663666753074e-05 0.000000000000e+00 -3.401923034254e-04 3.663666950476e-05 0.000000000000e+00 -3.284615335297e-04 3.201228708406e-05 0.000000000000e+00 -1.346714620335e-04 3.663665007827e-05 0.000000000000e+00 -1.407692430634e-04 3.663664708598e-05 0.000000000000e+00 -1.290384737263e-04 4.683976653093e-06 0.000000000000e+00 -2.277635468735e-04 0.000000000000e+00 0.000000000000e+00 -2.228846154569e-04 0.000000000000e+00 0.000000000000e+00 -2.346153881983e-04 4.623946318416e-06 0.000000000000e+00 -1.334916744602e-04 0.000000000000e+00 0.000000000000e+00 -1.290384537278e-04 0.000000000000e+00 0.000000000000e+00 -1.407692214082e-04 4.620795697010e-06 0.000000000000e+00 -5.351709353613e-04 0.000000000000e+00 0.000000000000e+00 -5.278846237804e-04 0.000000000000e+00 0.000000000000e+00 -5.396153923727e-04 4.620794724519e-06 0.000000000000e+00 -7.482907377811e-05 0.000000000000e+00 0.000000000000e+00 -7.038461661127e-05 0.000000000000e+00 0.000000000000e+00 -8.211538447795e-05 3.201584457331e-05 0.000000000000e+00 -7.482908081194e-05 3.663663955047e-05 0.000000000000e+00 -8.211539405660e-05 3.663663941652e-05 0.000000000000e+00 -7.038462365306e-05 3.201282088278e-05 0.000000000000e+00 -5.437144415877e-04 3.663663711954e-05 0.000000000000e+00 -5.513461496291e-04 3.663664018857e-05 0.000000000000e+00 -5.396153808295e-04 3.236696635967e-05 0.000000000000e+00 -2.749690950165e-04 3.663667823661e-05 0.000000000000e+00 -2.815384567237e-04 3.663667950679e-05 0.000000000000e+00 -2.698076891578e-04 3.245538678525e-05 0.000000000000e+00 -1.935576990463e-04 3.663666714234e-05 0.000000000000e+00 -1.994230873640e-04 3.663666342709e-05 0.000000000000e+00 -1.876923189570e-04 4.460477172311e-06 0.000000000000e+00 -2.724684892558e-04 0.000000000000e+00 0.000000000000e+00 -2.698077073966e-04 0.000000000000e+00 0.000000000000e+00 -2.815384805449e-04 4.158845432744e-06 0.000000000000e+00 -1.935576855679e-04 0.000000000000e+00 0.000000000000e+00 -1.876922997835e-04 0.000000000000e+00 0.000000000000e+00 -1.994230710799e-04 3.245775671080e-05 0.000000000000e+00 -4.169258007907e-04 3.663665471353e-05 0.000000000000e+00 -4.223076934845e-04 3.663665664541e-05 0.000000000000e+00 -4.105769230049e-04 3.245775121913e-05 0.000000000000e+00 -4.873104158477e-04 3.663664861910e-05 0.000000000000e+00 -4.926923081417e-04 3.663664972112e-05 0.000000000000e+00 -4.809615400224e-04 4.178900104655e-06 0.000000000000e+00 -4.169258237216e-04 0.000000000000e+00 0.000000000000e+00 -4.105769518409e-04 0.000000000000e+00 0.000000000000e+00 -4.223077177559e-04 4.343128451274e-06 0.000000000000e+00 -1.615054478502e-04 0.000000000000e+00 0.000000000000e+00 -1.524999898842e-04 0.000000000000e+00 0.000000000000e+00 -1.642307593721e-04 3.232564632305e-05 0.000000000000e+00 -1.619121448002e-04 3.663665636269e-05 0.000000000000e+00 -1.642307814157e-04 3.663665309665e-05 0.000000000000e+00 -1.525000123684e-04 3.976714329931e-06 0.000000000000e+00 -4.866704132778e-04 0.000000000000e+00 0.000000000000e+00 -4.809615517622e-04 0.000000000000e+00 0.000000000000e+00 -4.926923193006e-04 3.254451575288e-05 0.000000000000e+00 -3.473425009695e-04 3.663666572430e-05 0.000000000000e+00 -3.519230733107e-04 4.274854601042e-06 0.000000000000e+00 -3.185606708933e-04 0.000000000000e+00 0.000000000000e+00 -3.167307973297e-04 0.000000000000e+00 0.000000000000e+00 -3.284615692060e-04 2.121923255345e-05 0.000000000000e+00 -2.295266297089e-04 1.815417632240e-05 0.000000000000e+00 -2.202554016563e-04 1.727197103529e-05 0.000000000000e+00 -2.324039794675e-04 1.540417458533e-05 0.000000000000e+00 -1.598268296843e-04 1.806194821320e-05 0.000000000000e+00 -1.702427706351e-04 1.910470748159e-05 0.000000000000e+00 -1.565568423162e-04 1.688990093820e-05 0.000000000000e+00 -5.967942436637e-04 1.688990605408e-05 0.000000000000e+00 -1.320575859568e-05 4.100069931289e-06 0.000000000000e+00 -3.549737049003e-04 0.000000000000e+00 0.000000000000e+00 -3.519231105617e-04 0.000000000000e+00 0.000000000000e+00 -3.636538797497e-04 1.226120307812e-05 0.000000000000e+00 -3.060117772437e-04 1.311559838226e-05 0.000000000000e+00 -2.936406062237e-04 8.801086513718e-06 0.000000000000e+00 -2.977243764958e-04 1.699370300915e-05 0.000000000000e+00 -2.664224545321e-04 1.811240122327e-05 0.000000000000e+00 -2.537937738081e-04 1.368342463821e-05 0.000000000000e+00 -2.578734932666e-04 1.393482977888e-05 0.000000000000e+00 -2.713743027431e-04 3.936004660887e-06 0.000000000000e+00 -3.792918036059e-04 0.000000000000e+00 0.000000000000e+00 -3.753846488105e-04 0.000000000000e+00 0.000000000000e+00 -3.871154171020e-04 2.055020964757e-05 0.000000000000e+00 -5.100531705862e-04 1.904352114428e-05 0.000000000000e+00 -4.972307535461e-04 1.664813346917e-05 0.000000000000e+00 -5.101866806291e-04 1.853476504476e-05 0.000000000000e+00 -5.243457261287e-04 2.043167583944e-05 0.000000000000e+00 -4.413905226534e-04 1.919940462594e-05 0.000000000000e+00 -4.284452883748e-04 1.659113078394e-05 0.000000000000e+00 -4.405443527675e-04 1.823812913715e-05 0.000000000000e+00 -4.523949289500e-04 2.043832068992e-05 0.000000000000e+00 -3.710027253556e-04 1.911849759762e-05 0.000000000000e+00 -3.579320457537e-04 1.657579877122e-05 0.000000000000e+00 -3.702296682403e-04 1.827985877657e-05 0.000000000000e+00 -3.823343859887e-04 1.626092277315e-05 0.000000000000e+00 -1.004335015137e-04 1.778439754669e-05 0.000000000000e+00 -1.120283912733e-04 2.020261694522e-05 0.000000000000e+00 -1.009197886615e-04 1.838319522581e-05 0.000000000000e+00 -8.942999623115e-05 3.295116868288e-05 0.000000000000e+00 -9.992600180382e-05 3.663664187256e-05 0.000000000000e+00 -1.055769345093e-04 3.663664031226e-05 0.000000000000e+00 -9.384616441128e-05 3.685474205998e-06 0.000000000000e+00 -5.100740176727e-04 0.000000000000e+00 0.000000000000e+00 -5.044230877083e-04 0.000000000000e+00 0.000000000000e+00 -5.161538556497e-04 3.685472795371e-06 0.000000000000e+00 -9.992599008245e-05 0.000000000000e+00 0.000000000000e+00 -9.384615216143e-05 0.000000000000e+00 0.000000000000e+00 -1.055769192776e-04 3.295117427846e-05 0.000000000000e+00 -5.105029163379e-04 3.663664468947e-05 0.000000000000e+00 -5.161538439098e-04 3.663664703269e-05 0.000000000000e+00 -5.044230756949e-04 2.720677280615e-05 0.000000000000e+00 -1.237123402425e-05 9.429863142422e-06 0.000000000000e+00 -1.237123308660e-05 9.429860088200e-06 0.000000000000e+00 -5.976287693611e-04 2.720676301115e-05 0.000000000000e+00 -5.976287678047e-04 3.285467130120e-05 0.000000000000e+00 -2.419043188955e-04 3.663667973496e-05 0.000000000000e+00 -2.463461558105e-04 3.663667712612e-05 0.000000000000e+00 -2.346153893619e-04 3.096106188729e-05 0.000000000000e+00 -2.307148735068e-04 2.926307332205e-05 0.000000000000e+00 -2.428704919998e-04 3.285080856707e-05 0.000000000000e+00 -1.216288354824e-04 3.663664423598e-05 0.000000000000e+00 -1.173077043080e-04 2.471278948233e-05 0.000000000000e+00 -2.819845582176e-04 2.624038056305e-05 0.000000000000e+00 -2.694808778611e-04 2.262807426508e-05 0.000000000000e+00 -2.722453991934e-04 2.405837757492e-05 0.000000000000e+00 -2.592287948414e-04 3.861271624135e-06 0.000000000000e+00 -5.481812037498e-04 0.000000000000e+00 0.000000000000e+00 -5.513461606287e-04 3.277536791480e-05 0.000000000000e+00 -6.181881069873e-05 3.663663941327e-05 0.000000000000e+00 -5.865385324861e-05 3.861271062475e-06 0.000000000000e+00 -6.181880513615e-05 0.000000000000e+00 0.000000000000e+00 -5.865384807254e-05 3.938626042148e-06 0.000000000000e+00 -2.944434150232e-04 0.000000000000e+00 0.000000000000e+00 -2.932692527606e-04 0.000000000000e+00 0.000000000000e+00 -3.050000250929e-04 7.063874408089e-06 0.000000000000e+00 -2.831624833380e-04 5.752670920710e-06 0.000000000000e+00 -3.065233279938e-04 2.812445973732e-05 0.000000000000e+00 -2.562700722341e-04 2.722339193732e-05 0.000000000000e+00 -2.325466078658e-04 2.162557154619e-05 0.000000000000e+00 -1.656115630446e-04 6.157710859376e-06 0.000000000000e+00 -2.596558523417e-04 9.930795687949e-06 0.000000000000e+00 -2.638020242125e-04 9.752530002304e-06 0.000000000000e+00 -2.511753861675e-04 6.373267613249e-06 0.000000000000e+00 -2.452090440340e-04 1.257527383067e-05 0.000000000000e+00 -2.446506394431e-04 2.691277723609e-05 0.000000000000e+00 -3.967498985477e-04 2.723209716543e-05 0.000000000000e+00 -4.097689993764e-04 3.172385438918e-05 0.000000000000e+00 -4.021943615848e-04 2.309548150593e-05 0.000000000000e+00 -4.066267558987e-04 3.013440222846e-05 0.000000000000e+00 -3.856842575390e-04 2.580685230980e-05 0.000000000000e+00 -3.834557304499e-04 2.357121515018e-05 0.000000000000e+00 -3.925354129107e-04 3.172384773540e-05 0.000000000000e+00 -4.725789786787e-04 3.021705074488e-05 0.000000000000e+00 -4.563418660816e-04 2.757707680411e-05 0.000000000000e+00 -4.691393435872e-04 2.587955197542e-05 0.000000000000e+00 -4.544625643853e-04 2.345852373758e-05 0.000000000000e+00 -4.649759698865e-04 1.591427491110e-05 0.000000000000e+00 -5.710110317918e-04 1.954200354558e-05 0.000000000000e+00 -5.660361718558e-04 1.674568900918e-05 0.000000000000e+00 -5.570688218969e-04 1.441306109640e-05 0.000000000000e+00 -6.766178564026e-05 1.856452477395e-05 0.000000000000e+00 -6.687342536152e-05 1.650252520067e-05 0.000000000000e+00 -5.380544681915e-05 1.949318833133e-05 0.000000000000e+00 -4.417880667388e-05 1.586923215518e-05 0.000000000000e+00 -3.916613878656e-05 1.267299404307e-05 0.000000000000e+00 -5.670938380265e-05 2.305310640910e-05 0.000000000000e+00 -3.360895424122e-04 1.827059628733e-05 0.000000000000e+00 -3.350131670125e-04 2.003066400482e-05 0.000000000000e+00 -3.455165364779e-04 2.324430546153e-05 0.000000000000e+00 -3.514068264929e-04 1.864460296835e-05 0.000000000000e+00 -4.064442147013e-04 2.019923149555e-05 0.000000000000e+00 -4.162569283074e-04 2.327316652247e-05 0.000000000000e+00 -4.218346443233e-04 1.510298841962e-05 0.000000000000e+00 -2.248927857217e-04 3.718856321626e-06 0.000000000000e+00 -1.209334447956e-04 0.000000000000e+00 0.000000000000e+00 -1.173076864227e-04 9.660313738842e-06 0.000000000000e+00 -4.973142750674e-04 1.245605655990e-05 0.000000000000e+00 -5.078719892421e-04 1.317312601989e-05 0.000000000000e+00 -4.930301408317e-04 5.984195905616e-06 0.000000000000e+00 -4.730820213891e-04 8.933700750155e-06 0.000000000000e+00 -4.779231403314e-04 9.365333205421e-06 0.000000000000e+00 -4.669477587113e-04 6.567761183786e-06 0.000000000000e+00 -4.560162068679e-04 1.073490880484e-05 0.000000000000e+00 -4.537844366804e-04 1.272452562116e-05 0.000000000000e+00 -4.651728333095e-04 9.092611086025e-06 0.000000000000e+00 -3.987327270686e-04 6.783782085918e-06 0.000000000000e+00 -3.878477488907e-04 4.912806320418e-06 0.000000000000e+00 -4.021943874456e-04 1.070380688012e-05 0.000000000000e+00 -3.839539312557e-04 1.265376920050e-05 0.000000000000e+00 -3.930957280796e-04 2.000648687751e-05 0.000000000000e+00 -5.353996620174e-04 1.884644594659e-05 0.000000000000e+00 -5.451639939681e-04 2.266809331591e-05 0.000000000000e+00 -5.422206084588e-04 2.265442897517e-05 0.000000000000e+00 -5.292690655359e-04 2.704035109596e-05 0.000000000000e+00 -3.270682406375e-04 2.728261214761e-05 0.000000000000e+00 -3.397886234626e-04 3.022905600806e-05 0.000000000000e+00 -3.169960326171e-04 2.369732563773e-05 0.000000000000e+00 -3.218924279591e-04 1.653416776271e-05 0.000000000000e+00 -4.880252528941e-04 1.791849327792e-05 0.000000000000e+00 -4.756088758925e-04 1.408972065584e-05 0.000000000000e+00 -4.782294609233e-04 1.966448722811e-05 0.000000000000e+00 -2.978633615007e-04 1.807129873230e-05 0.000000000000e+00 -3.108080745216e-04 2.239160258697e-05 0.000000000000e+00 -3.091647152827e-04 3.293812067702e-05 0.000000000000e+00 -5.312992806691e-04 3.663664261961e-05 0.000000000000e+00 -5.278846125346e-04 1.572231684910e-05 0.000000000000e+00 -3.230765202219e-04 2.014792341888e-05 0.000000000000e+00 -3.226590350751e-04 1.379311687771e-05 0.000000000000e+00 -1.112979191355e-04 1.240019708267e-05 0.000000000000e+00 -1.004037297495e-04 9.912987056132e-06 0.000000000000e+00 -1.110568907679e-04 1.492958142274e-05 0.000000000000e+00 -1.225454555981e-04 2.798680274708e-05 0.000000000000e+00 -3.724991479509e-04 2.416468082291e-05 0.000000000000e+00 -3.719275463096e-04 3.135456319664e-05 0.000000000000e+00 -3.733075940498e-04 3.031292148341e-05 0.000000000000e+00 -3.596998748302e-04 2.800209719172e-05 0.000000000000e+00 -4.429652151752e-04 2.416178671356e-05 0.000000000000e+00 -4.423975254054e-04 3.135519736153e-05 0.000000000000e+00 -4.436535879393e-04 3.028966162450e-05 0.000000000000e+00 -4.298491525184e-04 8.612275000212e-06 0.000000000000e+00 -4.419219593967e-04 1.260315094310e-05 0.000000000000e+00 -4.406066462114e-04 1.062281074709e-05 0.000000000000e+00 -4.274918518271e-04 5.243418955563e-06 0.000000000000e+00 -4.435514678563e-04 6.011089136337e-06 0.000000000000e+00 -4.305535219897e-04 2.249130312981e-05 0.000000000000e+00 -5.003843455717e-04 2.436665028810e-05 0.000000000000e+00 -5.096309797363e-04 2.607456951638e-05 0.000000000000e+00 -4.972770048130e-04 2.260040084876e-05 0.000000000000e+00 -4.880449072569e-04 1.398779103173e-05 0.000000000000e+00 -5.216120984201e-04 1.009644055168e-05 0.000000000000e+00 -5.207395686810e-04 1.480405729221e-05 0.000000000000e+00 -5.339039416350e-04 2.624692453055e-05 0.000000000000e+00 -3.141794115291e-04 2.589114172298e-05 0.000000000000e+00 -3.025001026388e-04 2.271777072279e-05 0.000000000000e+00 -6.803453826321e-05 2.035247139972e-05 0.000000000000e+00 -7.868471146037e-05 2.397333417618e-05 0.000000000000e+00 -8.013053669412e-05 2.846451671766e-05 0.000000000000e+00 -1.006889011255e-04 2.430554474360e-05 0.000000000000e+00 -1.011748419117e-04 2.671452827230e-05 0.000000000000e+00 -1.119132944507e-04 3.012009250760e-05 0.000000000000e+00 -8.912544129340e-05 3.065185309833e-05 0.000000000000e+00 -1.112322969876e-04 8.327081520513e-06 0.000000000000e+00 -9.995127882576e-05 6.851600090073e-06 0.000000000000e+00 -8.707912453281e-05 6.010971144171e-06 0.000000000000e+00 -1.107591457062e-04 2.229847656962e-05 0.000000000000e+00 -1.139597896557e-04 2.459812434517e-05 0.000000000000e+00 -4.770437900053e-04 2.731821386573e-05 0.000000000000e+00 -4.800282557497e-04 3.286380909217e-05 0.000000000000e+00 -5.973991317885e-04 3.663663052489e-05 0.000000000000e+00 -5.865384587934e-04 3.772818547301e-06 0.000000000000e+00 -5.973991345988e-04 0.000000000000e+00 0.000000000000e+00 -5.865384649831e-04 3.286381995003e-05 0.000000000000e+00 -1.260086932752e-05 3.663664025218e-05 0.000000000000e+00 -2.346154174074e-05 3.772819440907e-06 0.000000000000e+00 -1.260086816500e-05 0.000000000000e+00 0.000000000000e+00 -2.346153981259e-05 2.024953258107e-05 0.000000000000e+00 -3.941930015155e-04 1.489261895614e-05 0.000000000000e+00 -4.286402282224e-04 1.360060350569e-05 0.000000000000e+00 -4.172122723489e-04 3.611389783938e-06 0.000000000000e+00 -4.608583976776e-04 0.000000000000e+00 0.000000000000e+00 -4.575000174635e-04 0.000000000000e+00 0.000000000000e+00 -4.692307846998e-04 3.302527149031e-05 0.000000000000e+00 -3.904737666698e-04 3.663665840055e-05 0.000000000000e+00 -3.988461528419e-04 3.663666025027e-05 0.000000000000e+00 -3.871153826091e-04 3.302526361653e-05 0.000000000000e+00 -4.608583853353e-04 3.663665103257e-05 0.000000000000e+00 -4.692307716298e-04 3.663665182441e-05 0.000000000000e+00 -4.575000028437e-04 2.199223930306e-05 0.000000000000e+00 -4.530115444304e-04 1.983919283164e-05 0.000000000000e+00 -4.640265696721e-04 2.206990664100e-05 0.000000000000e+00 -3.823827913917e-04 2.777728117588e-05 0.000000000000e+00 -1.307061166195e-04 2.746323263767e-05 0.000000000000e+00 -1.410147498448e-04 3.003677332548e-05 0.000000000000e+00 -1.502896411383e-04 2.631761693646e-05 0.000000000000e+00 -1.531952769122e-04 2.388444570539e-05 0.000000000000e+00 -1.436902143930e-04 2.057859747036e-05 0.000000000000e+00 -5.985015206738e-04 2.057860427913e-05 0.000000000000e+00 -1.149848135513e-05 1.048272805481e-05 0.000000000000e+00 -3.574575899338e-04 1.256992537690e-05 0.000000000000e+00 -3.705141274343e-04 1.471578101174e-05 0.000000000000e+00 -3.582228879482e-04 1.295228931524e-05 0.000000000000e+00 -3.466568009257e-04 2.799854216638e-05 0.000000000000e+00 -6.950880175338e-05 2.756829061974e-05 0.000000000000e+00 -7.973749861311e-05 9.833699005603e-06 0.000000000000e+00 -2.367318696351e-04 3.324299376037e-05 0.000000000000e+00 -3.216612504466e-04 3.663667168618e-05 0.000000000000e+00 -3.167307637896e-04 9.382406905759e-06 0.000000000000e+00 -4.095939625612e-04 1.250354057767e-05 0.000000000000e+00 -4.055042833708e-04 1.586273741594e-05 0.000000000000e+00 -3.012019070169e-04 1.702410798478e-05 0.000000000000e+00 -2.875018279297e-04 3.239512245297e-06 0.000000000000e+00 -2.404807743209e-04 0.000000000000e+00 0.000000000000e+00 -2.463461611757e-04 2.470671684696e-05 0.000000000000e+00 -2.239201832937e-04 2.180887966862e-05 0.000000000000e+00 -2.161906073255e-04 1.878062126869e-05 0.000000000000e+00 -2.062035008151e-04 2.305031562011e-05 0.000000000000e+00 -2.046120415215e-04 2.663198867901e-05 0.000000000000e+00 -2.388308156498e-05 2.991528727978e-05 0.000000000000e+00 -1.929506140600e-05 2.378360650558e-05 0.000000000000e+00 -1.755550750495e-05 6.784124836210e-06 0.000000000000e+00 -1.939659072676e-05 1.031285791813e-05 0.000000000000e+00 -2.442768930279e-05 1.312905937055e-05 0.000000000000e+00 -1.816985492240e-05 1.031657656063e-05 0.000000000000e+00 -5.855852118187e-04 6.784632383072e-06 0.000000000000e+00 -5.906053942704e-04 1.313002447103e-05 0.000000000000e+00 -5.918341469746e-04 2.992091018941e-05 0.000000000000e+00 -5.906946589741e-04 2.664359139503e-05 0.000000000000e+00 -5.861142462790e-04 2.378504954327e-05 0.000000000000e+00 -5.924461448322e-04 3.095936559562e-05 0.000000000000e+00 -3.036897947957e-04 3.063595944948e-05 0.000000000000e+00 -2.903124449691e-04 2.852329063122e-05 0.000000000000e+00 -2.989793448049e-04 1.451709640237e-05 0.000000000000e+00 -4.527083543123e-04 1.448996012317e-05 0.000000000000e+00 -3.824618741834e-04 2.843571574339e-05 0.000000000000e+00 -5.098597342467e-04 2.626920685899e-05 0.000000000000e+00 -5.220267387827e-04 3.037424628439e-05 0.000000000000e+00 -4.987226144199e-04 3.062253288012e-05 0.000000000000e+00 -5.210462761459e-04 1.452403037471e-05 0.000000000000e+00 -3.359095384317e-04 1.120518120275e-05 0.000000000000e+00 -3.364235446058e-04 3.403333778742e-06 0.000000000000e+00 -3.912269724675e-04 0.000000000000e+00 0.000000000000e+00 -3.988461846324e-04 3.348257107059e-05 0.000000000000e+00 -1.466346248681e-04 3.177710772795e-06 0.000000000000e+00 -2.051430031971e-04 0.000000000000e+00 0.000000000000e+00 -2.111538431314e-04 3.177709677916e-06 0.000000000000e+00 -1.819723684833e-04 0.000000000000e+00 0.000000000000e+00 -1.759615292687e-04 2.857400424542e-05 0.000000000000e+00 -1.639784132724e-04 2.499229293358e-05 0.000000000000e+00 -1.650384075351e-04 2.681586668824e-05 0.000000000000e+00 -1.789378885803e-04 3.087325463559e-05 0.000000000000e+00 -1.739895454253e-04 8.052600751534e-06 0.000000000000e+00 -5.095356780574e-04 6.294856628236e-06 0.000000000000e+00 -5.214416094238e-04 5.962010010895e-06 0.000000000000e+00 -4.984877055405e-04 3.346887520224e-05 0.000000000000e+00 -1.820931314307e-04 3.663665981307e-05 0.000000000000e+00 -1.759615502976e-04 3.346888262407e-05 0.000000000000e+00 -2.050222683298e-04 3.663667072607e-05 0.000000000000e+00 -2.111538550743e-04 2.086171081732e-05 0.000000000000e+00 -5.591811733736e-05 2.448350966651e-05 0.000000000000e+00 -5.705185966590e-05 3.463737878497e-06 0.000000000000e+00 -3.432259944795e-04 0.000000000000e+00 0.000000000000e+00 -3.401923403002e-04 7.211607260396e-06 0.000000000000e+00 -3.495833504685e-04 1.903200803010e-05 0.000000000000e+00 -1.253852520763e-04 1.856589966580e-05 0.000000000000e+00 -1.367073148218e-04 2.153528331661e-05 0.000000000000e+00 -1.347514842484e-04 2.260930260357e-05 0.000000000000e+00 -1.256457512874e-04 2.096034818925e-05 0.000000000000e+00 -5.545837279207e-04 2.461847632907e-05 0.000000000000e+00 -5.530007867938e-04 3.332402279996e-05 0.000000000000e+00 -2.190362413792e-04 3.663667428855e-05 0.000000000000e+00 -2.228846227433e-04 3.053434092539e-05 0.000000000000e+00 -2.101676422734e-04 1.394764092055e-05 0.000000000000e+00 -2.816857549248e-05 1.131519549443e-05 0.000000000000e+00 -3.698720913747e-05 1.760564470655e-05 0.000000000000e+00 -2.780513257882e-05 1.133728618833e-05 0.000000000000e+00 -5.730831102761e-04 1.395709333379e-05 0.000000000000e+00 -5.818681872188e-04 1.761127717005e-05 0.000000000000e+00 -5.822211913644e-04 2.840290872597e-05 0.000000000000e+00 -2.793161201243e-04 1.174849525006e-05 0.000000000000e+00 -1.622161065753e-04 1.395980985566e-05 0.000000000000e+00 -1.717493583653e-04 9.930933128457e-06 0.000000000000e+00 -1.743868028339e-04 1.265491473738e-05 0.000000000000e+00 -1.815025279432e-04 3.363916536396e-05 0.000000000000e+00 -2.874038428754e-04 3.663667625796e-05 0.000000000000e+00 -2.932692252440e-04 8.073039392421e-06 0.000000000000e+00 -1.621350337755e-04 1.020392125421e-05 0.000000000000e+00 -1.516318588671e-04 6.525433103985e-06 0.000000000000e+00 -1.493093497534e-04 5.882577680114e-06 0.000000000000e+00 -1.727401053496e-04 1.933742036113e-05 0.000000000000e+00 -1.828762889096e-04 1.726998352635e-05 0.000000000000e+00 -1.934469150542e-04 2.099732173945e-05 0.000000000000e+00 -1.938561114781e-04 2.276647735005e-05 0.000000000000e+00 -1.829195216155e-04 2.983519621117e-06 0.000000000000e+00 -2.170192290285e-04 5.986230004256e-06 0.000000000000e+00 -2.148011094601e-04 2.720664182394e-05 0.000000000000e+00 -2.051671005471e-04 2.861314234442e-05 0.000000000000e+00 -1.929989336783e-04 2.486588232741e-05 0.000000000000e+00 -1.931487564549e-04 9.178300145234e-06 0.000000000000e+00 -1.398446393481e-04 8.922454228546e-06 0.000000000000e+00 -1.296977567534e-04 1.211330067819e-05 0.000000000000e+00 -1.317803194301e-04 1.276779888308e-05 0.000000000000e+00 -1.427590471950e-04 2.969614810162e-06 0.000000000000e+00 -1.466346063386e-04 8.139867283899e-06 0.000000000000e+00 -2.248279776874e-04 1.185822875419e-05 0.000000000000e+00 -2.241994293520e-04 1.007557492578e-05 0.000000000000e+00 -2.122522114553e-04 3.367533791365e-05 0.000000000000e+00 -4.281730798049e-04 3.663665348329e-05 0.000000000000e+00 -4.340384636176e-04 3.367533246701e-05 0.000000000000e+00 -4.985576935229e-04 2.961317323013e-06 0.000000000000e+00 -5.220192397617e-04 2.961317856656e-06 0.000000000000e+00 -4.281731005713e-04 0.000000000000e+00 0.000000000000e+00 -4.340384842812e-04 2.961316105039e-06 0.000000000000e+00 -8.798076861904e-05 3.367532361333e-05 0.000000000000e+00 -8.798077829666e-05 8.095748948657e-06 0.000000000000e+00 -5.693583047495e-04 6.669439304604e-06 0.000000000000e+00 -5.591606472312e-04 4.758112443275e-06 0.000000000000e+00 -5.737014452594e-04 3.200071191036e-05 0.000000000000e+00 -5.729892068181e-04 3.078411505609e-05 0.000000000000e+00 -5.603104095194e-04 2.897477976130e-05 0.000000000000e+00 -5.696215926932e-04 4.758113423955e-06 0.000000000000e+00 -3.629856131140e-05 6.683320106166e-06 0.000000000000e+00 -5.112130402623e-05 8.085287289870e-06 0.000000000000e+00 -4.071978292951e-05 2.880821810597e-05 0.000000000000e+00 -4.054311410490e-05 3.019812422044e-05 0.000000000000e+00 -5.103603119399e-05 3.187852567730e-05 0.000000000000e+00 -3.629856452889e-05 3.330643618661e-06 0.000000000000e+00 -5.840389614856e-04 0.000000000000e+00 0.000000000000e+00 -5.748076968283e-04 3.330598606271e-05 0.000000000000e+00 -5.840389561589e-04 3.663663231224e-05 0.000000000000e+00 -5.748076884577e-04 3.330644131066e-06 0.000000000000e+00 -2.596104356831e-05 0.000000000000e+00 0.000000000000e+00 -3.519230954660e-05 3.330599531246e-05 0.000000000000e+00 -2.596104601430e-05 3.663663986078e-05 0.000000000000e+00 -3.519231258676e-05 3.365742550564e-05 0.000000000000e+00 -3.580993894967e-04 3.663666426449e-05 0.000000000000e+00 -3.636538431616e-04 1.659558925650e-05 0.000000000000e+00 -7.860649911158e-05 1.309471454417e-05 0.000000000000e+00 -7.987844203558e-05 3.371086840912e-06 0.000000000000e+00 -2.832373533658e-04 3.371840267723e-05 0.000000000000e+00 -5.572115362898e-04 3.663663480892e-05 0.000000000000e+00 -5.630769188968e-04 2.817311364204e-05 0.000000000000e+00 -5.409534778398e-04 2.803862574706e-05 0.000000000000e+00 -5.506633893218e-04 1.217799370829e-05 0.000000000000e+00 -5.427089476890e-04 8.804237883411e-06 0.000000000000e+00 -5.396944567811e-04 9.628877470893e-06 0.000000000000e+00 -5.507500597820e-04 1.298407239969e-05 0.000000000000e+00 -5.537090860527e-04 8.211363687826e-06 0.000000000000e+00 -3.722737440663e-04 5.323464490121e-06 0.000000000000e+00 -3.671335272882e-04 1.641531077842e-05 0.000000000000e+00 -1.465522217202e-04 2.842390782820e-05 0.000000000000e+00 -2.193413455501e-04 2.108805671716e-05 0.000000000000e+00 -1.749270391257e-04 3.326642569474e-06 0.000000000000e+00 -5.636739792608e-04 0.000000000000e+00 0.000000000000e+00 -5.630769287372e-04 3.330999661543e-05 0.000000000000e+00 -4.632603265319e-05 3.663663968642e-05 0.000000000000e+00 -4.692308298066e-05 3.326642527125e-06 0.000000000000e+00 -4.632602860948e-05 0.000000000000e+00 0.000000000000e+00 -4.692307892264e-05 3.375535839276e-05 0.000000000000e+00 -2.525638239870e-04 3.663668022595e-05 0.000000000000e+00 -2.580769221136e-04 1.606813739481e-05 0.000000000000e+00 -3.959531911375e-04 1.623295194663e-05 0.000000000000e+00 -4.646422489615e-04 2.804625222522e-06 0.000000000000e+00 -4.985577035492e-04 1.036692819820e-05 0.000000000000e+00 -5.616470462396e-04 1.030243329541e-05 0.000000000000e+00 -4.852621365795e-05 9.620199619982e-06 0.000000000000e+00 -5.933460072977e-05 8.584184379092e-06 0.000000000000e+00 -3.138919082251e-04 3.381015120437e-05 0.000000000000e+00 -1.111564110734e-04 1.949665755137e-05 0.000000000000e+00 -2.416147324252e-04 2.250761084073e-05 0.000000000000e+00 -2.398865170726e-04 2.870348056082e-05 0.000000000000e+00 -4.882757122363e-04 7.902026369606e-06 0.000000000000e+00 -4.183212355752e-04 2.932143489310e-05 0.000000000000e+00 -5.321592719122e-04 7.406770380073e-06 0.000000000000e+00 -1.213196579979e-04 8.229743352035e-06 0.000000000000e+00 -5.299326677091e-04 7.029165865827e-06 0.000000000000e+00 -2.033446853503e-04 8.620575994632e-06 0.000000000000e+00 -1.934765881415e-04 6.987915280061e-06 0.000000000000e+00 -1.837125303802e-04 2.137095183068e-05 0.000000000000e+00 -5.759600990758e-04 2.577763677175e-05 0.000000000000e+00 -5.741773628119e-04 2.323224617756e-05 0.000000000000e+00 -5.642449770203e-04 2.316630019330e-05 0.000000000000e+00 -4.590539809051e-05 2.573283855822e-05 0.000000000000e+00 -3.587897754782e-05 2.135501200146e-05 0.000000000000e+00 -3.409115197968e-05 2.795223215477e-06 0.000000000000e+00 -3.691594264820e-04 2.910869997649e-06 0.000000000000e+00 -1.712014127735e-04 2.924565455022e-05 0.000000000000e+00 -1.221086525085e-04 2.874968084809e-06 0.000000000000e+00 -1.105226210652e-04 1.659490038169e-05 0.000000000000e+00 -3.466095178377e-04 3.042008757672e-05 0.000000000000e+00 -1.844427030541e-04 3.042212677785e-05 0.000000000000e+00 -2.014507104164e-04 1.461101485519e-05 0.000000000000e+00 -2.135200820077e-04 1.273644940848e-05 0.000000000000e+00 -2.046031166626e-04 3.374812156949e-05 0.000000000000e+00 -5.209066997448e-04 7.519382978044e-06 0.000000000000e+00 -4.868106613384e-04 2.534520486586e-05 0.000000000000e+00 -2.449446782623e-04 3.014830786803e-06 0.000000000000e+00 -3.087071137839e-04 1.582496273566e-05 0.000000000000e+00 -2.440788044660e-04 7.137574604557e-06 0.000000000000e+00 -3.601951549513e-04 1.482202711171e-05 0.000000000000e+00 -3.117961020337e-04 3.373695708214e-05 0.000000000000e+00 -1.714741114154e-04 3.391469809095e-05 0.000000000000e+00 -3.113559472893e-04 3.663667399379e-05 0.000000000000e+00 -3.049999941111e-04 2.047060425322e-05 0.000000000000e+00 -2.628271904083e-04 1.914663170912e-05 0.000000000000e+00 -2.752596108687e-04 1.068609544215e-05 0.000000000000e+00 -2.865947036158e-04 1.068515823239e-05 0.000000000000e+00 -2.753387769601e-04 2.258504682859e-05 0.000000000000e+00 -3.626828035852e-04 2.259940684001e-05 0.000000000000e+00 -4.331050798438e-04 1.547765437517e-05 0.000000000000e+00 -5.450382365472e-04 2.381380392584e-05 0.000000000000e+00 -6.017038671034e-04 1.282281827188e-05 0.000000000000e+00 -6.017038676054e-04 1.282282210126e-05 0.000000000000e+00 -8.296133897994e-06 2.381381235491e-05 0.000000000000e+00 -8.296134359607e-06 2.600274660033e-06 0.000000000000e+00 -2.642456907864e-04 0.000000000000e+00 0.000000000000e+00 -2.580769344730e-04 6.958743255549e-06 0.000000000000e+00 -6.540590419382e-05 9.536652263087e-06 0.000000000000e+00 -6.978513876772e-05 6.722661668524e-06 0.000000000000e+00 -5.466128612262e-04 1.574790069104e-05 0.000000000000e+00 -1.822204296857e-04 1.294601484992e-05 0.000000000000e+00 -1.931303438248e-04 1.533407015913e-05 0.000000000000e+00 -2.022200633338e-04 3.000649927152e-05 0.000000000000e+00 -2.675727376614e-04 3.129652743162e-05 0.000000000000e+00 -2.587518848663e-04 1.864375646683e-05 0.000000000000e+00 -5.737764581957e-04 1.862325048346e-05 0.000000000000e+00 -3.631289087795e-05 1.371551459825e-05 0.000000000000e+00 -2.343849790729e-04 1.554630467434e-05 0.000000000000e+00 -4.993986812507e-04 2.218383493742e-05 0.000000000000e+00 -9.009584383125e-05 2.687664559847e-05 0.000000000000e+00 -2.912118680408e-04 2.247797087627e-05 0.000000000000e+00 -5.189207959884e-04 1.466988942112e-05 0.000000000000e+00 -8.972452051449e-05 7.422675344454e-06 0.000000000000e+00 -5.793294561470e-04 2.938117860477e-05 0.000000000000e+00 -3.041514013589e-05 7.418246990722e-06 0.000000000000e+00 -3.069009478737e-05 2.943025993927e-05 0.000000000000e+00 -5.795041249910e-04 1.262788102524e-05 0.000000000000e+00 -3.278484707774e-04 9.803559756852e-06 0.000000000000e+00 -3.261554964198e-04 2.037904953174e-05 0.000000000000e+00 -1.452746486285e-04 2.425638677845e-05 0.000000000000e+00 -2.339953216939e-04 1.029434432215e-05 0.000000000000e+00 -2.013886173645e-04 1.024780000647e-05 0.000000000000e+00 -1.853139123924e-04 3.381720923550e-05 0.000000000000e+00 -2.660957403644e-04 7.620570851764e-06 0.000000000000e+00 -2.709688868606e-04 2.485149817960e-06 0.000000000000e+00 -4.515069573586e-04 0.000000000000e+00 0.000000000000e+00 -4.457692505723e-04 3.415151299198e-05 0.000000000000e+00 -3.811223228903e-04 3.663666221547e-05 0.000000000000e+00 -3.753846128526e-04 3.415150411511e-05 0.000000000000e+00 -4.515069423076e-04 3.663665260302e-05 0.000000000000e+00 -4.457692333906e-04 2.760381160499e-06 0.000000000000e+00 -2.504131946471e-04 2.478638812241e-05 0.000000000000e+00 -1.331068598283e-04 2.349489960288e-05 0.000000000000e+00 -1.735052124763e-04 3.010905976562e-05 0.000000000000e+00 -6.346526067175e-05 2.754142767011e-05 0.000000000000e+00 -5.925365966258e-05 2.128464030895e-05 0.000000000000e+00 -4.754176891406e-04 2.837161828574e-05 0.000000000000e+00 -3.073156066236e-04 2.275202690612e-05 0.000000000000e+00 -1.548045996229e-04 2.609443068862e-05 0.000000000000e+00 -9.031264506172e-05 2.979171335924e-05 0.000000000000e+00 -3.462063710275e-04 2.695656496503e-05 0.000000000000e+00 -3.506796216734e-04 2.340947964772e-05 0.000000000000e+00 -2.945434608559e-04 2.110768228637e-05 0.000000000000e+00 -2.849077029612e-04 1.562270956328e-05 0.000000000000e+00 -1.341131052960e-04 2.591244037688e-05 0.000000000000e+00 -4.318436302517e-04 2.693842839463e-05 0.000000000000e+00 -4.208919183091e-04 2.591227371125e-05 0.000000000000e+00 -3.614866919089e-04 3.004597917164e-05 0.000000000000e+00 -9.561907970555e-06 6.590658368305e-06 0.000000000000e+00 -9.561907144888e-06 3.004596861160e-05 0.000000000000e+00 -6.004380932146e-04 6.590656491540e-06 0.000000000000e+00 -6.004380946637e-04 9.939917897080e-06 0.000000000000e+00 -3.453987639670e-04 1.159883661371e-05 0.000000000000e+00 -6.524209232600e-05 1.556837493414e-05 0.000000000000e+00 -4.085172054510e-04 1.205684508860e-05 0.000000000000e+00 -2.672339958290e-04 2.972757571846e-05 0.000000000000e+00 -4.160405869496e-04 1.092101270799e-05 0.000000000000e+00 -8.957583954190e-05 9.944505508833e-06 0.000000000000e+00 -7.945856174788e-05 1.075433475406e-05 0.000000000000e+00 -4.850985282708e-04 1.699860176241e-05 0.000000000000e+00 -4.176275934837e-04 2.582192694328e-05 0.000000000000e+00 -5.349313930880e-04 2.068316393593e-05 0.000000000000e+00 -5.881760144470e-04 2.068008718644e-05 0.000000000000e+00 -2.183435055797e-05 2.691696238621e-05 0.000000000000e+00 -5.619144649795e-04 2.670345126673e-05 0.000000000000e+00 -4.835354619251e-05 3.394923325781e-05 0.000000000000e+00 -2.970862999961e-04 6.476941435369e-06 0.000000000000e+00 -2.347962806933e-04 7.638546209989e-06 0.000000000000e+00 -3.368038915449e-04 4.921988025713e-06 0.000000000000e+00 -3.316555630811e-04 3.395680361043e-05 0.000000000000e+00 -5.668925237903e-04 1.749163170321e-05 0.000000000000e+00 -5.367588970101e-04 1.541522197589e-05 0.000000000000e+00 -5.881350942098e-04 1.541254853706e-05 0.000000000000e+00 -2.187643942954e-05 1.946259418509e-05 0.000000000000e+00 -4.847204260093e-04 1.326812753130e-05 0.000000000000e+00 -1.526214018164e-04 7.018001613676e-06 0.000000000000e+00 -3.253215080239e-04 2.665357251488e-06 0.000000000000e+00 -4.377516698368e-04 3.397129767756e-05 0.000000000000e+00 -4.377516515714e-04 3.026006247545e-05 0.000000000000e+00 -4.794499242633e-04 6.381794522515e-06 0.000000000000e+00 -4.091307015742e-04 1.347052787699e-05 0.000000000000e+00 -5.633656707485e-04 1.335239966797e-05 0.000000000000e+00 -4.694404191517e-05 2.283967185215e-06 0.000000000000e+00 -3.343269545705e-04 2.500879345220e-05 0.000000000000e+00 -2.137505055239e-04 3.401875519998e-05 0.000000000000e+00 -3.676008215570e-04 1.226383635832e-05 0.000000000000e+00 -3.180691632691e-04 3.384159967246e-05 0.000000000000e+00 -4.085909400927e-04 3.384159311443e-05 0.000000000000e+00 -4.789755568654e-04 2.795058593633e-06 0.000000000000e+00 -4.085909671505e-04 2.583844210312e-05 0.000000000000e+00 -5.443341225359e-04 2.560648868811e-05 0.000000000000e+00 -6.534092508867e-05 1.172280483725e-05 0.000000000000e+00 -7.257932154780e-05 1.621116570599e-05 0.000000000000e+00 -2.767770658228e-04 1.364649097684e-05 0.000000000000e+00 -2.820943832568e-04 2.511432184005e-05 0.000000000000e+00 -4.148677112303e-04 1.083465071223e-05 0.000000000000e+00 -4.156647604442e-04 2.580956063883e-05 0.000000000000e+00 -4.861239822350e-04 2.511557351273e-05 0.000000000000e+00 -3.445663552245e-04 2.554502062942e-05 0.000000000000e+00 -1.228272288558e-04 1.120415174875e-05 0.000000000000e+00 -1.213880743048e-04 3.442170329702e-05 0.000000000000e+00 -2.287500042566e-04 3.103755713004e-05 0.000000000000e+00 -2.505313847528e-04 2.550910877000e-05 0.000000000000e+00 -7.269787149135e-05 1.135732445519e-05 0.000000000000e+00 -5.316426781106e-04 2.199319825626e-06 0.000000000000e+00 -4.750961678848e-04 7.559076550337e-06 0.000000000000e+00 -7.549235277719e-05 2.169953438241e-05 0.000000000000e+00 -2.502923383612e-04 2.367912955345e-05 0.000000000000e+00 -5.832777826786e-04 2.366851377644e-05 0.000000000000e+00 -2.673944728317e-05 1.118611392924e-05 0.000000000000e+00 -4.748526113207e-04 3.591172736724e-05 7.101124136398e-06 -5.982692294343e-04 3.591173658052e-05 7.101126273450e-06 -1.173077078029e-05 3.627419585518e-05 3.550562610926e-06 -1.349038578850e-04 3.591174585498e-05 7.101125809304e-06 -1.407692417388e-04 3.591174352041e-05 7.101125303662e-06 -1.290384721738e-04 3.627419096917e-05 3.550562036527e-06 -1.114423187511e-04 3.591174138953e-05 7.101124830055e-06 -1.173077027674e-04 3.591173964438e-05 7.101124545676e-06 -1.055769331492e-04 3.627418770796e-05 3.550561900678e-06 -8.798077897983e-05 3.591173827418e-05 7.101124442486e-06 -9.384616341649e-05 3.591173749671e-05 7.101124655315e-06 -8.211539315523e-05 3.627418751264e-05 3.550562912617e-06 -2.932692705279e-05 3.591173671417e-05 7.101125946271e-06 -3.519231197991e-05 3.591173661807e-05 7.101126256722e-06 -2.346154141842e-05 3.627418724860e-05 3.550562456113e-06 -5.278846801915e-05 3.591173673999e-05 7.101125324343e-06 -5.865385278588e-05 3.591173674985e-05 7.101125637687e-06 -4.692308243121e-05 3.627418365264e-05 3.550562065810e-06 -5.572115344238e-04 3.591173251900e-05 7.101124510825e-06 -5.630769194830e-04 3.591173474969e-05 7.101124743815e-06 -5.513461504788e-04 3.627418913887e-05 3.550562091866e-06 -5.337499969099e-04 3.591173720235e-05 7.101124782928e-06 -5.396153816362e-04 3.591173926844e-05 7.101124789716e-06 -5.278846131743e-04 3.627419522712e-05 3.550562261064e-06 -4.985576923231e-04 3.591174287925e-05 7.101124812554e-06 -5.044230768389e-04 3.591174438138e-05 7.101124812101e-06 -4.926923085747e-04 3.627419766600e-05 3.550562424365e-06 -4.750961559792e-04 3.591174564432e-05 7.101124907407e-06 -4.809615402904e-04 3.591174661277e-05 7.101125167433e-06 -4.692307718241e-04 3.627420028148e-05 3.550562617921e-06 -4.399038488520e-04 3.591174808523e-05 7.101125333939e-06 -4.457692339740e-04 3.591174906251e-05 7.101125504930e-06 -4.340384642734e-04 3.627421170630e-05 3.550563212709e-06 -3.577884584377e-04 3.591175815869e-05 7.101126449201e-06 -3.636538437051e-04 3.591175981637e-05 7.101126920751e-06 -3.519230735675e-04 3.627422602998e-05 3.550565037483e-06 -2.639423058398e-04 3.591177152205e-05 7.101129464841e-06 -2.698076897156e-04 3.591177121445e-05 7.101129293348e-06 -2.580769227294e-04 3.627417939299e-05 3.550561947219e-06 -5.806730735981e-04 3.591172853847e-05 7.101124611942e-06 -5.865384589874e-04 3.591173037926e-05 7.101124492101e-06 -5.748076888792e-04 3.627421520035e-05 3.550564115450e-06 -3.343269185081e-04 3.591176164705e-05 7.101127822360e-06 -3.401923037688e-04 3.591176343432e-05 7.101128409175e-06 -3.284615338313e-04 3.627421891296e-05 3.550564253825e-06 -2.170192384136e-04 3.591176667090e-05 7.101128234374e-06 -2.228846212777e-04 3.591176391977e-05 7.101127978740e-06 -2.111538537598e-04 3.627422339522e-05 3.550565042513e-06 -2.874038411612e-04 3.591176888923e-05 7.101129434380e-06 -2.932692256960e-04 3.591177053806e-05 7.101129554630e-06 -2.815384572996e-04 3.627420185348e-05 3.550563246907e-06 -1.583653962987e-04 3.591175150211e-05 7.101126902137e-06 -1.642307800636e-04 3.591174858362e-05 7.101126330871e-06 -1.525000110141e-04 3.627420259273e-05 3.550562767518e-06 -4.164423084209e-04 3.591175021626e-05 7.101125581600e-06 -4.223076942444e-04 3.591175139521e-05 7.101125851672e-06 -4.105769241330e-04 3.627420606967e-05 3.550563122233e-06 -3.929807683080e-04 3.591175286675e-05 7.101125937160e-06 -3.988461539467e-04 3.591175468214e-05 7.101126323303e-06 -3.871153837784e-04 3.627421940000e-05 3.550564640250e-06 -3.108653791938e-04 3.591176540010e-05 7.101128767174e-06 -3.167307642383e-04 3.591176715039e-05 7.101129241506e-06 -3.049999947131e-04 3.627422426171e-05 3.550564744728e-06 -2.404807725303e-04 3.591177054112e-05 7.101128955181e-06 -2.463461555337e-04 3.591176896414e-05 7.101128664515e-06 -2.346153884736e-04 3.627421205763e-05 3.550563873847e-06 -1.935577026037e-04 3.591176080535e-05 7.101127742802e-06 -1.994230857115e-04 3.591175761744e-05 7.101127587343e-06 -1.876923174295e-04 3.627418730781e-05 3.550562051481e-06 -7.516102777816e-05 3.591173676772e-05 7.101124971259e-06 -7.038462304475e-05 3.627418772817e-05 3.550563042512e-06 -1.650717539046e-05 3.627417794741e-05 3.550561803750e-06 -5.934928249310e-04 3.627420971529e-05 3.550563170061e-06 -3.706082089616e-04 3.591175641395e-05 7.101126334013e-06 -3.753846135392e-04 3.627419873484e-05 3.550562523754e-06 -4.622764065918e-04 3.591174741125e-05 7.101125254064e-06 -4.575000031148e-04 3.627420822650e-05 3.550563694296e-06 -1.807379534094e-04 3.591175451813e-05 7.101127281424e-06 -1.759615488961e-04 3.627419111350e-05 3.550562458883e-06 -5.209302477396e-04 3.591174111006e-05 7.101124838109e-06 -5.161538448237e-04 3.632326518627e-05 3.069855154693e-06 -1.231730885153e-04 3.632325937245e-05 3.069855467406e-06 -4.105769768106e-05 3.632326103827e-05 3.069854788158e-06 -9.971154914966e-05 3.622512668247e-05 4.031270193160e-06 -1.466346271348e-04 3.622514124699e-05 4.031270893639e-06 -3.460576885606e-04 3.622512909773e-05 4.031269902236e-06 -4.281730788071e-04 3.632326855412e-05 3.069854961724e-06 -4.868269242606e-04 3.632329417697e-05 3.069857013744e-06 -2.287500057915e-04 3.632325841276e-05 3.069854990325e-06 -5.454807655546e-04 3.622515288588e-05 4.031272557986e-06 -2.756730732163e-04 3.622515334921e-05 4.031272321570e-06 -2.522115390580e-04 3.632329379488e-05 3.069857332068e-06 -2.991346098028e-04 3.632328772577e-05 3.069856622396e-06 -2.052884708001e-04 3.632325322976e-05 3.069854813714e-06 -5.689423035706e-04 3.622514513775e-05 4.031271783452e-06 -3.225961487764e-04 3.622513220388e-05 4.031270250793e-06 -4.047115383125e-04 3.621693657988e-05 4.111387316426e-06 -6.397474780896e-05 3.633145019889e-05 2.989737620205e-06 -4.510901279107e-04 3.633145878597e-05 2.989737978592e-06 -3.817944885200e-04 3.621694269307e-05 4.111387316565e-06 -5.097439700026e-04 3.633145574897e-05 2.989738328996e-06 -1.695516752538e-04 3.379581799504e-05 1.398404395179e-05 -1.173077055990e-05 3.379581037437e-05 1.398404145940e-05 -5.982692295367e-04 3.485377749385e-05 1.054258430191e-05 -5.278846700431e-05 3.379581917322e-05 1.398404374503e-05 -4.692308115975e-05 3.379581945032e-05 1.398404339981e-05 -5.865385107993e-05 3.485378260491e-05 1.054258336901e-05 -1.231730861896e-04 3.379582307983e-05 1.398404192985e-05 -1.173077000783e-04 3.379582450749e-05 1.398404237655e-05 -1.290384695856e-04 3.485377983004e-05 1.054258293713e-05 -9.971154704305e-05 3.379582101848e-05 1.398404208253e-05 -9.384616063249e-05 3.379582194413e-05 1.398404189868e-05 -1.055769303927e-04 3.485377818270e-05 1.054258346289e-05 -7.625000710857e-05 3.379581981883e-05 1.398404292879e-05 -7.038462097723e-05 3.379582034446e-05 1.398404238517e-05 -8.211539083396e-05 3.485377674549e-05 1.054258488175e-05 -1.759615595094e-05 3.379581844400e-05 1.398404404126e-05 -2.346154090457e-05 3.485378675053e-05 1.054258447011e-05 -1.466346250106e-04 3.379582616859e-05 1.398404286736e-05 -1.407692389014e-04 3.379582809367e-05 1.398404352293e-05 -1.525000080642e-04 3.485377054282e-05 1.054258284700e-05 -5.806730744950e-04 3.379581345590e-05 1.398404159567e-05 -5.748076899650e-04 3.379581156979e-05 1.398404184447e-05 -5.865384596830e-04 3.485380266490e-05 1.054258656313e-05 -2.170192362027e-04 3.379583978812e-05 1.398404509108e-05 -2.111538509129e-04 3.379584184129e-05 1.398404534992e-05 -2.228846190660e-04 3.485377647119e-05 1.054258338469e-05 -5.454807669990e-04 3.379581857492e-05 1.398404197668e-05 -5.396153834700e-04 3.379581694795e-05 1.398404207203e-05 -5.513461520057e-04 3.485378041296e-05 1.054258275580e-05 -5.220192299294e-04 3.379582205413e-05 1.398404118664e-05 -5.161538467242e-04 3.379582043317e-05 1.398404139817e-05 -5.278846151395e-04 3.485378466371e-05 1.054258282352e-05 -4.868269252622e-04 3.379582569092e-05 1.398404107230e-05 -4.809615419413e-04 3.379582475231e-05 1.398404103481e-05 -4.926923103176e-04 3.485380372979e-05 1.054258812446e-05 -3.108653798923e-04 3.379584282259e-05 1.398404702530e-05 -3.049999956415e-04 3.379584128155e-05 1.398404671258e-05 -3.167307645238e-04 3.485379730524e-05 1.054258624253e-05 -1.935576999838e-04 3.379583479218e-05 1.398404479969e-05 -1.876923142974e-04 3.379583739986e-05 1.398404496226e-05 -1.994230826645e-04 3.485380805701e-05 1.054258807668e-05 -2.639423064344e-04 3.379584528867e-05 1.398404660479e-05 -2.580769225799e-04 3.379584550498e-05 1.398404691943e-05 -2.698076906732e-04 3.485379176864e-05 1.054258560667e-05 -1.700961627886e-04 3.379583013313e-05 1.398404422434e-05 -1.642307770073e-04 3.379583248281e-05 1.398404456539e-05 -1.759615457078e-04 3.485380675220e-05 1.054258839866e-05 -2.874038422295e-04 3.379584488121e-05 1.398404717363e-05 -2.815384586272e-04 3.379584402883e-05 1.398404743381e-05 -2.932692270429e-04 3.485378781861e-05 1.054258341450e-05 -4.399038498380e-04 3.379582836525e-05 1.398404178319e-05 -4.340384659860e-04 3.379582771767e-05 1.398404138066e-05 -4.457692352356e-04 3.485379721524e-05 1.054258520264e-05 -3.577884589101e-04 3.379583674390e-05 1.398404431723e-05 -3.519230739481e-04 3.379583507540e-05 1.398404376322e-05 -3.636538443749e-04 3.485380057749e-05 1.054258684251e-05 -3.343269189209e-04 3.379583982723e-05 1.398404602337e-05 -3.284615340720e-04 3.379583837493e-05 1.398404517809e-05 -3.401923037991e-04 3.485378626619e-05 1.054258299124e-05 -4.633653882770e-04 3.379582701145e-05 1.398404106034e-05 -4.575000043006e-04 3.379582633693e-05 1.398404110497e-05 -4.692307733552e-04 3.485378988462e-05 1.054258380362e-05 -4.164423101129e-04 3.379583014402e-05 1.398404229444e-05 -4.105769260836e-04 3.379582920332e-05 1.398404203110e-05 -4.223076962364e-04 3.485379218128e-05 1.054258423131e-05 -3.929807696752e-04 3.379583225114e-05 1.398404279428e-05 -3.871153853556e-04 3.379583108927e-05 1.398404259321e-05 -3.988461558104e-04 3.485380668763e-05 1.054258725505e-05 -2.404807714559e-04 3.379584354996e-05 1.398404563113e-05 -2.346153869681e-04 3.379584478906e-05 1.398404595934e-05 -2.463461546923e-04 3.485377730267e-05 1.054258462294e-05 -3.989766310950e-05 3.379581881706e-05 1.398404398966e-05 -3.519231113832e-05 3.485379399434e-05 1.054258451416e-05 -3.800899658598e-04 3.379583368116e-05 1.398404306694e-05 -3.753846148763e-04 3.485378222261e-05 1.054258271213e-05 -5.091284282554e-04 3.379582356403e-05 1.398404118945e-05 -5.044230784274e-04 3.485376886709e-05 1.054258276830e-05 -5.935638781487e-04 3.485377428727e-05 1.054258298326e-05 -5.583715693699e-04 3.379581542720e-05 1.398404152898e-05 -5.630769208315e-04 3.500371156687e-05 1.005486321908e-05 -8.798077727342e-05 3.470384831503e-05 1.103030288236e-05 -1.114423164693e-04 3.470385152320e-05 1.103030378024e-05 -1.349038554210e-04 3.500371053348e-05 1.005486401440e-05 -6.451923725445e-05 3.500372216088e-05 1.005486525740e-05 -1.583653941791e-04 3.470384570656e-05 1.103030290606e-05 -5.337499985456e-04 3.470386887931e-05 1.103030730102e-05 -3.225961495601e-04 3.500372004135e-05 1.005486325138e-05 -4.516346190650e-04 3.500371861086e-05 1.005486308287e-05 -4.750961567726e-04 3.500373209237e-05 1.005486601168e-05 -3.460576887773e-04 3.470387425851e-05 1.103030811618e-05 -2.756730742719e-04 3.470385573051e-05 1.103030341003e-05 -4.281730802979e-04 3.470387215262e-05 1.103030808031e-05 -2.991346110658e-04 3.470386688147e-05 1.103030622760e-05 -2.052884680292e-04 3.470387429460e-05 1.103030759800e-05 -2.522115389047e-04 3.500373822659e-05 1.005486706561e-05 -2.287500040223e-04 3.470385776420e-05 1.103030382105e-05 -4.047115401705e-04 3.470386132660e-05 1.103030580254e-05 -1.818269312361e-04 3.467885546899e-05 1.111159141209e-05 -2.874690952813e-05 3.502869396962e-05 9.973576303218e-06 -5.695223215837e-04 3.502870534375e-05 9.973576323215e-06 -4.979776766157e-04 3.502871759061e-05 9.973578281623e-06 -3.689392123759e-04 3.513005840871e-05 9.643861833663e-06 -8.798078045710e-06 3.043491103873e-05 2.028260559584e-05 -5.982692299226e-04 3.211537148790e-05 1.713332352423e-05 -1.114423135616e-04 3.043492067986e-05 2.028260574902e-05 -1.055769271609e-04 3.043492130943e-05 2.028260561899e-05 -1.173076968859e-04 3.211536855848e-05 1.713332593558e-05 -4.105769542923e-05 3.043491872373e-05 2.028260856163e-05 -3.519230995318e-05 3.043491902334e-05 2.028260845792e-05 -4.692307951155e-05 3.211537003376e-05 1.713332412265e-05 -8.798077425094e-05 3.043491974449e-05 2.028260692418e-05 -8.211538793072e-05 3.043492016541e-05 2.028260627163e-05 -9.384615757546e-05 3.211536757893e-05 1.713332574968e-05 -1.759615553077e-05 3.043491792923e-05 2.028260813482e-05 -1.173077032450e-05 3.043491839702e-05 2.028260842811e-05 -2.346154026683e-05 3.211537379291e-05 1.713332391075e-05 -1.349038527683e-04 3.043492227326e-05 2.028260564313e-05 -1.290384663754e-04 3.043492341617e-05 2.028260576234e-05 -1.407692356905e-04 3.211536918617e-05 1.713332527619e-05 -6.451923487874e-05 3.043491924403e-05 2.028260816645e-05 -5.865384899928e-05 3.043491944255e-05 2.028260757162e-05 -7.038461842658e-05 3.211536675039e-05 1.713332316710e-05 -5.454807688699e-04 3.043491756059e-05 2.028260430522e-05 -5.396153861363e-04 3.043491612868e-05 2.028260498655e-05 -5.513461544387e-04 3.211539104031e-05 1.713332750450e-05 -2.639423069737e-04 3.043493738167e-05 2.028260845535e-05 -2.580769232683e-04 3.043493744072e-05 2.028260882011e-05 -2.698076916788e-04 3.211537372026e-05 1.713332170913e-05 -4.868269270284e-04 3.043492282394e-05 2.028260287817e-05 -4.809615437447e-04 3.043492205991e-05 2.028260301745e-05 -4.926923125150e-04 3.211537602532e-05 1.713332189716e-05 -4.399038515311e-04 3.043492483645e-05 2.028260301136e-05 -4.340384677591e-04 3.043492446869e-05 2.028260270896e-05 -4.457692370211e-04 3.211537729070e-05 1.713332256901e-05 -4.164423124870e-04 3.043492581548e-05 2.028260360073e-05 -4.105769281924e-04 3.043492521189e-05 2.028260329439e-05 -4.223076981523e-04 3.211538565869e-05 1.713332650236e-05 -3.343269197158e-04 3.043493341219e-05 2.028260829098e-05 -3.284615352673e-04 3.043493214013e-05 2.028260733615e-05 -3.401923054169e-04 3.211536201427e-05 1.713332357209e-05 -5.806730756415e-04 3.043491328102e-05 2.028260532902e-05 -5.748076916298e-04 3.043491176840e-05 2.028260575022e-05 -5.865384605400e-04 3.211537000153e-05 1.713332229099e-05 -5.220192321864e-04 3.043491979057e-05 2.028260402199e-05 -5.161538492602e-04 3.043491886103e-05 2.028260388977e-05 -5.278846176644e-04 3.211537691799e-05 1.713332483547e-05 -1.583653908846e-04 3.043492470986e-05 2.028260607811e-05 -1.525000047541e-04 3.043492623081e-05 2.028260637649e-05 -1.642307737016e-04 3.211538988884e-05 1.713332641364e-05 -2.404807702339e-04 3.043493587588e-05 2.028260742565e-05 -2.346153856375e-04 3.043493684448e-05 2.028260792170e-05 -2.463461544416e-04 3.211538701362e-05 1.713332591575e-05 -2.170192339722e-04 3.043493313658e-05 2.028260701549e-05 -2.111538483997e-04 3.043493470291e-05 2.028260712612e-05 -2.228846171353e-04 3.211538957620e-05 1.713332806498e-05 -2.991346120408e-04 3.043493672403e-05 2.028260950221e-05 -2.932692287390e-04 3.043493596832e-05 2.028260927004e-05 -3.049999973553e-04 3.211538312876e-05 1.713332559031e-05 -1.935576968842e-04 3.043492981743e-05 2.028260668365e-05 -1.876923112412e-04 3.043493161444e-05 2.028260675474e-05 -1.994230799277e-04 3.211537487781e-05 1.713332178354e-05 -4.633653896216e-04 3.043492406377e-05 2.028260278505e-05 -4.575000059800e-04 3.043492340323e-05 2.028260285840e-05 -4.692307749057e-04 3.211537885859e-05 1.713332327869e-05 -3.929807717786e-04 3.043492717471e-05 2.028260454609e-05 -3.871153871846e-04 3.043492640349e-05 2.028260405172e-05 -3.988461578261e-04 3.211538102429e-05 1.713332425162e-05 -3.695192303414e-04 3.043492913966e-05 2.028260566716e-05 -3.636538459368e-04 3.043492808179e-05 2.028260512223e-05 -3.753846166282e-04 3.211538261852e-05 1.713332493206e-05 -3.566982103530e-04 3.043493070145e-05 2.028260645594e-05 -3.519230753298e-04 3.211537139599e-05 1.713332241863e-05 -5.091982141753e-04 3.043492091472e-05 2.028260357175e-05 -5.044230809249e-04 3.211537902257e-05 1.713332529740e-05 -1.711864091636e-04 3.043492794559e-05 2.028260656723e-05 -1.759615425827e-04 3.211539088599e-05 1.713332786054e-05 -2.767633247573e-04 3.043493722143e-05 2.028260918127e-05 -2.815384603201e-04 3.211538825080e-05 1.713332790875e-05 -3.119556305343e-04 3.043493466013e-05 2.028260900068e-05 -3.167307661416e-04 3.211536533120e-05 1.713332309592e-05 -5.583017869980e-04 3.043491481064e-05 2.028260507243e-05 -5.630769230228e-04 3.211536057816e-05 1.713332336200e-05 -5.934940946309e-04 3.188766460975e-05 1.756006387668e-05 -1.231730830354e-04 3.188766048245e-05 1.756006636366e-05 -2.932692549353e-05 3.188766180784e-05 1.756006513807e-05 -7.625000433290e-05 3.234307838360e-05 1.670658339061e-05 -9.971154408820e-05 3.234307666338e-05 1.670658530708e-05 -5.278846535431e-05 3.188766736750e-05 1.756006457326e-05 -1.466346216795e-04 3.234308449127e-05 1.670658215898e-05 -4.281730820426e-04 3.188766641617e-05 1.756006195391e-05 -4.750961585626e-04 3.234307627630e-05 1.670658229987e-05 -5.337500004040e-04 3.234308338080e-05 1.670658159992e-05 -4.516346205525e-04 3.188768039183e-05 1.756006632542e-05 -2.287500020204e-04 3.188768242302e-05 1.756006721184e-05 -2.522115388172e-04 3.188767712851e-05 1.756006598493e-05 -2.052884652334e-04 3.188767178874e-05 1.756006385323e-05 -3.812500011597e-04 3.234308597840e-05 1.670658273998e-05 -4.047115420619e-04 3.184970486117e-05 1.763118687704e-05 -5.694874313517e-04 3.238104362605e-05 1.663546200209e-05 -3.455125649048e-04 3.184972165457e-05 1.763118900408e-05 -1.823720528962e-04 3.184972741435e-05 1.763119098537e-05 -3.231412749900e-04 3.184973080483e-05 1.763119182906e-05 -2.879489684625e-04 3.238103193925e-05 1.663545841696e-05 -4.980125704028e-04 3.168348705289e-05 1.794269950383e-05 -8.798077811978e-06 2.590208073491e-05 2.585034306671e-05 -5.982692309014e-04 2.590208851150e-05 2.585034693021e-05 -1.173076974605e-05 2.816850418528e-05 2.306647437455e-05 -9.971154083835e-05 2.590208845217e-05 2.585034293544e-05 -1.055769241578e-04 2.590208821758e-05 2.585034376446e-05 -9.384615464265e-05 2.816850613399e-05 2.306647347185e-05 -1.349038495552e-04 2.590209031079e-05 2.585034154935e-05 -1.407692327507e-04 2.590208943726e-05 2.585034187871e-05 -1.290384632350e-04 2.816850378200e-05 2.306647599372e-05 -7.625000181719e-05 2.590208823958e-05 2.585034471729e-05 -8.211538519623e-05 2.590208835855e-05 2.585034560043e-05 -7.038461591074e-05 2.816850360586e-05 2.306647726035e-05 -5.278846328570e-05 2.590208849100e-05 2.585034640024e-05 -5.865384679529e-05 2.590208861798e-05 2.585034698225e-05 -4.692307775083e-05 2.816850333717e-05 2.306647747073e-05 -2.932692455230e-05 2.590208865453e-05 2.585034700123e-05 -3.519230863385e-05 2.590208862386e-05 2.585034700082e-05 -2.346153926889e-05 2.816849716161e-05 2.306647378648e-05 -5.806730770181e-04 2.590208197733e-05 2.585034285541e-05 -5.865384623322e-04 2.590208310394e-05 2.585034238575e-05 -5.748076939511e-04 2.816849985797e-05 2.306647307972e-05 -5.572115400630e-04 2.590208419758e-05 2.585034182937e-05 -5.630769255849e-04 2.590208538717e-05 2.585034132668e-05 -5.513461573279e-04 2.816850239186e-05 2.306647189095e-05 -5.337500034380e-04 2.590208633651e-05 2.585034070090e-05 -5.396153891422e-04 2.590208708149e-05 2.585033998930e-05 -5.278846205778e-04 2.816850385880e-05 2.306647107204e-05 -5.102884664405e-04 2.590208756897e-05 2.585033927172e-05 -5.161538520547e-04 2.590208843433e-05 2.585033846516e-05 -5.044230834829e-04 2.816850638736e-05 2.306646986759e-05 -4.750961602016e-04 2.590208974803e-05 2.585033761562e-05 -4.809615459038e-04 2.590209062943e-05 2.585033722656e-05 -4.692307769591e-04 2.816850764669e-05 2.306646957517e-05 -4.399038531795e-04 2.590209127394e-05 2.585033684077e-05 -4.457692384555e-04 2.590209141815e-05 2.585033694731e-05 -4.340384692027e-04 2.816851188993e-05 2.306647309691e-05 -3.577884617481e-04 2.590209380580e-05 2.585034024527e-05 -3.636538475716e-04 2.590209491941e-05 2.585034112565e-05 -3.519230770563e-04 2.816851450138e-05 2.306647480006e-05 -3.343269209353e-04 2.590209609882e-05 2.585034202296e-05 -3.401923066489e-04 2.590209747011e-05 2.585034269138e-05 -3.284615368632e-04 2.816851864302e-05 2.306647556337e-05 -2.639423078483e-04 2.590210052081e-05 2.585034338607e-05 -2.698076924574e-04 2.590210025987e-05 2.585034313670e-05 -2.580769234636e-04 2.816851555088e-05 2.306647389483e-05 -2.170192319650e-04 2.590209841293e-05 2.585034158752e-05 -2.228846159665e-04 2.590209739652e-05 2.585034134270e-05 -2.111538468358e-04 2.816851843957e-05 2.306647621536e-05 -2.874038450597e-04 2.590210029766e-05 2.585034357976e-05 -2.932692299797e-04 2.590210045443e-05 2.585034355231e-05 -2.815384616588e-04 2.816850848273e-05 2.306647349475e-05 -1.583653878137e-04 2.590209252688e-05 2.585034118836e-05 -1.642307709724e-04 2.590209142309e-05 2.585034128084e-05 -1.525000018679e-04 2.816850841103e-05 2.306647022418e-05 -4.164423141314e-04 2.590209172437e-05 2.585033726266e-05 -4.223076997636e-04 2.590209191318e-05 2.585033767542e-05 -4.105769299368e-04 2.816850926324e-05 2.306647124167e-05 -3.929807736353e-04 2.590209206847e-05 2.585033833066e-05 -3.988461598274e-04 2.590209217582e-05 2.585033905148e-05 -3.871153891565e-04 2.816851700139e-05 2.306647580711e-05 -3.108653822618e-04 2.590209860876e-05 2.585034296873e-05 -3.167307677482e-04 2.590209962467e-05 2.585034342897e-05 -3.049999987458e-04 2.816851770816e-05 2.306647471987e-05 -2.404807698079e-04 2.590209985329e-05 2.585034265095e-05 -2.463461542993e-04 2.590209936017e-05 2.585034209427e-05 -2.346153852015e-04 2.816851295778e-05 2.306647366521e-05 -1.935576940386e-04 2.590209630412e-05 2.585034107462e-05 -1.994230776161e-04 2.590209512323e-05 2.585034110095e-05 -1.876923088068e-04 2.816850463770e-05 2.306647389321e-05 -1.125782368655e-04 2.590208884027e-05 2.585034230903e-05 -1.173076937534e-04 2.816850306404e-05 2.306647729640e-05 -1.646022851507e-05 2.816851070768e-05 2.306647235287e-05 -3.706551588633e-04 2.590209287691e-05 2.585033944092e-05 -3.753846184443e-04 2.816850996807e-05 2.306647353011e-05 -1.712320831037e-04 2.590209384632e-05 2.585034104329e-05 -1.759615397815e-04 2.816850714160e-05 2.306646970596e-05 -4.622294649382e-04 2.590209117082e-05 2.585033697242e-05 -4.575000076991e-04 2.816850553825e-05 2.306647008456e-05 -4.879628553946e-04 2.590208913910e-05 2.585033783804e-05 -4.926923147699e-04 2.816849577407e-05 2.306647410197e-05 -5.935397722660e-04 2.785212085838e-05 2.345509476646e-05 -4.105769386882e-05 2.785212114737e-05 2.345509233676e-05 -8.798077109375e-05 2.785212098662e-05 2.345509391600e-05 -6.451923233190e-05 2.848489006110e-05 2.267785645048e-05 -1.466346189673e-04 2.785212048480e-05 2.345508852305e-05 -5.220192351018e-04 2.785212514921e-05 2.345508678128e-05 -4.281730839458e-04 2.785213565811e-05 2.345509299840e-05 -2.756730767467e-04 2.848488388791e-05 2.267785563253e-05 -5.454807715753e-04 2.848489873840e-05 2.267785855167e-05 -3.225961512832e-04 2.785213521931e-05 2.345509216295e-05 -2.522115389306e-04 2.848490089720e-05 2.267785944334e-05 -2.991346137177e-04 2.785213379105e-05 2.345509109445e-05 -2.287500009089e-04 2.848489170258e-05 2.267785372040e-05 -4.047115439424e-04 2.848489732443e-05 2.267785685962e-05 -2.052884631771e-04 2.848489620621e-05 2.267785706824e-05 -3.460576910323e-04 2.785211594428e-05 2.345509045248e-05 -5.689423086238e-04 2.853761855832e-05 2.261308706183e-05 -1.237410434947e-04 2.853762327733e-05 2.261308532965e-05 -3.818179660391e-04 2.853761801443e-05 2.261308400430e-05 -4.991256608436e-04 2.779939418057e-05 2.351985587942e-05 -4.510666592882e-04 2.779939802686e-05 2.351986000566e-05 -1.823948882726e-04 2.034342777372e-05 3.039430864995e-05 -5.982692320837e-04 2.034343507357e-05 3.039431389154e-05 -1.173076913681e-05 2.312276000508e-05 2.812232508480e-05 -9.971153813059e-05 2.034343201292e-05 3.039430657093e-05 -1.055769217587e-04 2.034343214682e-05 3.039430769763e-05 -9.384615233563e-05 2.312276129274e-05 2.812232275043e-05 -1.349038465823e-04 2.034343368867e-05 3.039430391061e-05 -1.407692300264e-04 2.034343275956e-05 3.039430471696e-05 -1.290384607450e-04 2.312276028940e-05 2.812232737078e-05 -7.624999944340e-05 2.034343240069e-05 3.039430898706e-05 -8.211538299712e-05 2.034343280263e-05 3.039431051594e-05 -7.038461391933e-05 2.312276094566e-05 2.812232910509e-05 -5.278846141880e-05 2.034343347210e-05 3.039431152183e-05 -5.865384502813e-05 2.034343403177e-05 3.039431242236e-05 -4.692307619518e-05 2.312276144849e-05 2.812232984976e-05 -2.932692337599e-05 2.034343447571e-05 3.039431299980e-05 -3.519230731888e-05 2.034343483608e-05 3.039431344490e-05 -2.346153823275e-05 2.312275558073e-05 2.812232472592e-05 -5.806730792386e-04 2.034342861822e-05 3.039430762521e-05 -5.865384642860e-04 2.034342944292e-05 3.039430662693e-05 -5.748076964218e-04 2.312275832415e-05 2.812232240165e-05 -5.454807748454e-04 2.034343101607e-05 3.039430478798e-05 -5.513461603824e-04 2.034343141415e-05 3.039430388358e-05 -5.396153923554e-04 2.312276004837e-05 2.812231984797e-05 -5.102884693124e-04 2.034343205144e-05 3.039430174509e-05 -5.161538552832e-04 2.034343242534e-05 3.039430091018e-05 -5.044230864896e-04 2.312276165768e-05 2.812231786835e-05 -4.750961626496e-04 2.034343328822e-05 3.039429941118e-05 -4.809615482890e-04 2.034343390311e-05 3.039429875700e-05 -4.692307790037e-04 2.312276295630e-05 2.812231693135e-05 -4.399038546095e-04 2.034343471860e-05 3.039429782202e-05 -4.457692403184e-04 2.034343490471e-05 3.039429765407e-05 -4.340384707055e-04 2.312276491825e-05 2.812232089765e-05 -3.577884630045e-04 2.034343528546e-05 3.039430103085e-05 -3.636538484990e-04 2.034343624531e-05 3.039430214705e-05 -3.519230782137e-04 2.312276711515e-05 2.812232270385e-05 -3.343269227377e-04 2.034343709449e-05 3.039430298766e-05 -3.401923083028e-04 2.034343846133e-05 3.039430345762e-05 -3.284615384512e-04 2.312277026534e-05 2.812232362781e-05 -2.639423078979e-04 2.034344095307e-05 3.039430480969e-05 -2.698076924760e-04 2.034344065937e-05 3.039430465156e-05 -2.580769233255e-04 2.312276332168e-05 2.812232186399e-05 -1.583653849600e-04 2.034343565774e-05 3.039430279922e-05 -1.642307684037e-04 2.034343466227e-05 3.039430329337e-05 -1.524999991844e-04 2.312277018220e-05 2.812232371299e-05 -2.991346149578e-04 2.034344051778e-05 3.039430454529e-05 -3.049999996504e-04 2.034344105154e-05 3.039430466911e-05 -2.932692306608e-04 2.312276899177e-05 2.812232234736e-05 -2.287500000580e-04 2.034343986454e-05 3.039430376819e-05 -2.346153845266e-04 2.034343946008e-05 3.039430333538e-05 -2.228846149556e-04 2.312276661524e-05 2.812232138129e-05 -1.935576921407e-04 2.034343831529e-05 3.039430258043e-05 -1.994230761626e-04 2.034343758089e-05 3.039430248551e-05 -1.876923067322e-04 2.312276311148e-05 2.812231750669e-05 -4.164423154403e-04 2.034343490569e-05 3.039429780559e-05 -4.223077007056e-04 2.034343455663e-05 3.039429831377e-05 -4.105769305348e-04 2.312276279948e-05 2.812231887338e-05 -3.929807749098e-04 2.034343414267e-05 3.039429905979e-05 -3.988461602568e-04 2.034343394341e-05 3.039429959593e-05 -3.871153898223e-04 2.312276054305e-05 2.812232349456e-05 -1.220371508437e-04 2.034343223721e-05 3.039430557353e-05 -1.173076913136e-04 2.312276153719e-05 2.812233000249e-05 -1.646022774247e-05 2.312277060848e-05 2.812232379652e-05 -2.768090035766e-04 2.034344124420e-05 3.039430481519e-05 -2.815384615585e-04 2.312276366733e-05 2.812231987766e-05 -3.706551600152e-04 2.034343430286e-05 3.039430025731e-05 -3.753846190437e-04 2.312275725178e-05 2.812232321975e-05 -5.583474692516e-04 2.034343006895e-05 3.039430576669e-05 -5.630769284443e-04 2.312276827659e-05 2.812232181391e-05 -2.158833042794e-04 2.034343896396e-05 3.039430286844e-05 -2.111538454672e-04 2.312276857588e-05 2.812232301335e-05 -3.214602268784e-04 2.034343970597e-05 3.039430387332e-05 -3.167307690177e-04 2.312276982682e-05 2.812232323165e-05 -2.510756122490e-04 2.034344014751e-05 3.039430419665e-05 -2.463461539026e-04 2.312276228116e-05 2.812231752401e-05 -4.622294670655e-04 2.034343437759e-05 3.039429812409e-05 -4.575000097676e-04 2.312276069972e-05 2.812231899753e-05 -4.974217742440e-04 2.034343300947e-05 3.039430001008e-05 -4.926923175198e-04 2.312276550399e-05 2.812232139705e-05 -1.806909966913e-04 2.034343671637e-05 3.039430256910e-05 -1.759615375570e-04 2.312275923913e-05 2.812232078654e-05 -5.231551643211e-04 2.034343164803e-05 3.039430286707e-05 -5.278846240201e-04 2.312275442250e-05 2.812232559788e-05 -5.935397735888e-04 2.273477681674e-05 2.843948591388e-05 -8.798076854970e-05 2.273477810048e-05 2.843948947049e-05 -4.105769236587e-05 2.273477743185e-05 2.843948814709e-05 -6.451923025154e-05 2.273477898119e-05 2.843948187962e-05 -1.466346157191e-04 2.273477977902e-05 2.843947658573e-05 -4.281730852148e-04 2.351074934733e-05 2.780516224591e-05 -3.460576925373e-04 2.351074626804e-05 2.780515857343e-05 -4.047115453389e-04 2.267011306233e-05 2.849234385042e-05 -1.108743443058e-04 2.267010951326e-05 2.849234363375e-05 -5.695102744730e-04 2.267012213617e-05 2.849234293737e-05 -3.102974208637e-04 2.267012019685e-05 2.849234102284e-05 -2.047204981567e-04 2.267011557616e-05 2.849233663282e-05 -4.510666609746e-04 2.267011411963e-05 2.849233791063e-05 -4.862589687538e-04 2.267012205302e-05 2.849234240776e-05 -2.399128061201e-04 2.357541165523e-05 2.775230208678e-05 -1.695281912062e-04 2.357541798623e-05 2.775230428348e-05 -2.879718092463e-04 2.357541042396e-05 2.775229990616e-05 -3.818179674709e-04 2.267011166005e-05 2.849234143462e-05 -5.343179700397e-04 1.405160968494e-05 3.376781561293e-05 -1.173076868420e-05 1.405160373867e-05 3.376780747725e-05 -5.982692330547e-04 1.719751957650e-05 3.208105227840e-05 -1.349038440948e-04 1.405160580873e-05 3.376780133517e-05 -1.290384582342e-04 1.405160660204e-05 3.376780033799e-05 -1.407692274896e-04 1.719751855678e-05 3.208105552574e-05 -9.971153616225e-05 1.405160533712e-05 3.376780504648e-05 -9.384615076629e-05 1.405160511357e-05 3.376780372085e-05 -1.055769200498e-04 1.719751904218e-05 3.208105845232e-05 -7.624999767818e-05 1.405160633568e-05 3.376780852061e-05 -7.038461266865e-05 1.405160560973e-05 3.376780672159e-05 -8.211538155725e-05 1.719752060117e-05 3.208106149295e-05 -5.278845996657e-05 1.405160793766e-05 3.376781201134e-05 -4.692307500080e-05 1.405160706351e-05 3.376781035990e-05 -5.865384386338e-05 1.719752185046e-05 3.208106342078e-05 -2.932692232867e-05 1.405160925997e-05 3.376781461307e-05 -2.346153746723e-05 1.405160861833e-05 3.376781349090e-05 -3.519230622533e-05 1.719751681522e-05 3.208105622854e-05 -5.806730811202e-04 1.405160503078e-05 3.376780527840e-05 -5.748076981873e-04 1.405160439322e-05 3.376780633960e-05 -5.865384657553e-04 1.719752112496e-05 3.208104477771e-05 -4.399038560453e-04 1.405160758746e-05 3.376779221401e-05 -4.340384715442e-04 1.405160743921e-05 3.376779252213e-05 -4.457692417049e-04 1.719752079110e-05 3.208104483644e-05 -4.164423157766e-04 1.405160701131e-05 3.376779233018e-05 -4.105769306402e-04 1.405160735401e-05 3.376779210069e-05 -4.223077011522e-04 1.719752312342e-05 3.208105022503e-05 -3.343269234604e-04 1.405160947006e-05 3.376779825937e-05 -3.284615382109e-04 1.405160834150e-05 3.376779762949e-05 -3.401923078419e-04 1.719751877250e-05 3.208105165689e-05 -5.337500097211e-04 1.405160613131e-05 3.376780017663e-05 -5.278846270048e-04 1.405160636675e-05 3.376780147312e-05 -5.396153952616e-04 1.719751883008e-05 3.208104940701e-05 -5.102884722631e-04 1.405160579735e-05 3.376779737753e-05 -5.044230897062e-04 1.405160564544e-05 3.376779888946e-05 -5.161538583606e-04 1.719752587577e-05 3.208105195472e-05 -2.991346149328e-04 1.405161151068e-05 3.376780026361e-05 -2.932692292602e-04 1.405161124390e-05 3.376779964668e-05 -3.049999986776e-04 1.719752628405e-05 3.208105239895e-05 -2.756730764109e-04 1.405161160528e-05 3.376780100991e-05 -2.698076908233e-04 1.405161166324e-05 3.376780071493e-05 -2.815384599807e-04 1.719752467075e-05 3.208105102613e-05 -2.170192295937e-04 1.405161044787e-05 3.376779937485e-05 -2.111538441914e-04 1.405161065209e-05 3.376779993119e-05 -2.228846137431e-04 1.719752140176e-05 3.208105081044e-05 -1.583653825294e-04 1.405160750234e-05 3.376779953253e-05 -1.524999967777e-04 1.405160842684e-05 3.376779902433e-05 -1.642307660917e-04 1.719751773936e-05 3.208105430479e-05 -5.572115457940e-04 1.405160556740e-05 3.376780319009e-05 -5.513461632021e-04 1.405160524725e-05 3.376780432286e-05 -5.630769307417e-04 1.719751987481e-05 3.208104658276e-05 -4.750961650570e-04 1.405160673018e-05 3.376779395299e-05 -4.692307817610e-04 1.405160616592e-05 3.376779508372e-05 -4.809615516271e-04 1.719752016026e-05 3.208104590426e-05 -3.929807751717e-04 1.405160611684e-05 3.376779381619e-05 -3.871153892152e-04 1.405160664660e-05 3.376779291785e-05 -3.988461599987e-04 1.719752038390e-05 3.208104767214e-05 -3.695192341615e-04 1.405160663855e-05 3.376779570920e-05 -3.636538482746e-04 1.405160623843e-05 3.376779460949e-05 -3.753846186972e-04 1.719752570947e-05 3.208105228832e-05 -2.522115378423e-04 1.405161106614e-05 3.376780075694e-05 -2.463461523186e-04 1.405161143149e-05 3.376780096940e-05 -2.580769215405e-04 1.719752388550e-05 3.208105029172e-05 -1.935576905919e-04 1.405160977907e-05 3.376779868166e-05 -1.876923050075e-04 1.405161015099e-05 3.376779887558e-05 -1.994230747127e-04 1.719751837016e-05 3.208105432314e-05 -1.125325550724e-04 1.405160515273e-05 3.376780251628e-05 -1.173076890943e-04 1.719752225635e-05 3.208106424785e-05 -1.650590383303e-05 1.719752130984e-05 3.208104886837e-05 -3.566982141757e-04 1.405160728847e-05 3.376779681161e-05 -3.519230776794e-04 1.719752535525e-05 3.208105142894e-05 -3.119556337128e-04 1.405161051959e-05 3.376779888559e-05 -3.167307682818e-04 1.719752094619e-05 3.208104512191e-05 -4.527248756031e-04 1.405160746461e-05 3.376779312124e-05 -4.575000116179e-04 1.719752517672e-05 3.208105183516e-05 -2.393905189421e-04 1.405161072541e-05 3.376780035422e-05 -2.346153832500e-04 1.719751929724e-05 3.208104748758e-05 -4.879171840329e-04 1.405160606111e-05 3.376779607742e-05 -4.926923209117e-04 1.719751574767e-05 3.208105743181e-05 -5.934940981383e-04 1.719752242486e-05 3.208105040718e-05 -1.711864014448e-04 1.405160916145e-05 3.376779871957e-05 -1.759615355371e-04 1.677123487761e-05 3.230961817355e-05 -8.798076679355e-05 1.677123739966e-05 3.230962413405e-05 -4.105769109472e-05 1.677123589311e-05 3.230962135258e-05 -6.451922872692e-05 1.677123658052e-05 3.230961264830e-05 -1.466346131547e-04 1.677123356069e-05 3.230961647446e-05 -5.689423136289e-04 1.677123711989e-05 3.230960576782e-05 -4.281730860356e-04 1.762380379293e-05 3.185248580103e-05 -3.812500046110e-04 1.677124219567e-05 3.230961345335e-05 -2.874038454357e-04 1.762381001532e-05 3.185249131772e-05 -2.639423072446e-04 1.677124023142e-05 3.230961165384e-05 -2.052884600668e-04 1.677123647071e-05 3.230960626042e-05 -4.047115454959e-04 1.677123489652e-05 3.230961178822e-05 -5.220192414370e-04 1.762380238125e-05 3.185249169010e-05 -5.454807775663e-04 1.670018752633e-05 3.234770799750e-05 -1.237181994456e-04 1.769485176307e-05 3.181439114821e-05 -4.639105199958e-04 1.670019303244e-05 3.234770534359e-05 -3.231412784019e-04 1.769485338854e-05 3.181439505756e-05 -3.455125685857e-04 1.670018786038e-05 3.234770322423e-05 -4.991028285099e-04 1.670019356961e-05 3.234770610416e-05 -2.282048743344e-04 1.769485451503e-05 3.181439554738e-05 -1.823720461254e-04 7.172934572652e-06 3.589749521006e-05 -5.982692333516e-04 7.172937913026e-06 3.589750486235e-05 -1.173076829545e-05 1.061227064126e-05 3.483264272590e-05 -1.349038418425e-04 7.172935561961e-06 3.589748479480e-05 -1.407692254024e-04 7.172935106068e-06 3.589748559904e-05 -1.290384564654e-04 1.061227186759e-05 3.483265427833e-05 -5.278845908306e-05 7.172936089018e-06 3.589749651769e-05 -5.865384308262e-05 7.172936737541e-06 3.589749890482e-05 -4.692307425999e-05 1.061227323367e-05 3.483265777929e-05 -2.932692150949e-05 7.172937337336e-06 3.589750106568e-05 -3.519230553515e-05 7.172937709057e-06 3.589750309736e-05 -2.346153685125e-05 1.061226981053e-05 3.483264490014e-05 -1.114423038522e-04 7.172934658750e-06 3.589748674160e-05 -1.173076876700e-04 7.172934609460e-06 3.589748805968e-05 -1.055769187358e-04 1.061226981298e-05 3.483264798883e-05 -8.798076573547e-05 7.172934581247e-06 3.589748975352e-05 -9.384614978290e-05 7.172934838847e-06 3.589749179144e-05 -8.211538089177e-05 1.061227004641e-05 3.483264935129e-05 -5.806730828920e-04 7.172935200984e-06 3.589749414993e-05 -5.865384669020e-04 7.172935425968e-06 3.589749282346e-05 -5.748076999763e-04 1.061227079880e-05 3.483264521202e-05 -5.454807805923e-04 7.172935624019e-06 3.589748942635e-05 -5.513461654006e-04 7.172935412093e-06 3.589748754903e-05 -5.396153974938e-04 1.061227051598e-05 3.483264173006e-05 -5.220192439342e-04 7.172935437029e-06 3.589748553228e-05 -5.278846291016e-04 7.172935087479e-06 3.589748337491e-05 -5.161538608936e-04 1.061227072165e-05 3.483263593363e-05 -4.750961678375e-04 7.172935320259e-06 3.589747853062e-05 -4.809615537035e-04 7.172935475745e-06 3.589747727628e-05 -4.692307839385e-04 1.061227160811e-05 3.483263336904e-05 -4.399038575041e-04 7.172935867195e-06 3.589747522167e-05 -4.457692433527e-04 7.172935867874e-06 3.589747472748e-05 -4.340384723975e-04 1.061227068416e-05 3.483263694079e-05 -3.577884622183e-04 7.172934788525e-06 3.589747776243e-05 -3.636538467164e-04 7.172935406531e-06 3.589747873144e-05 -3.519230764645e-04 1.061227260055e-05 3.483263887974e-05 -3.343269222274e-04 7.172936120837e-06 3.589748014593e-05 -3.401923062355e-04 7.172936764846e-06 3.589748135059e-05 -3.284615361122e-04 1.061227458847e-05 3.483264148846e-05 -2.991346124675e-04 7.172937711034e-06 3.589748311781e-05 -3.049999960782e-04 7.172938063043e-06 3.589748411030e-05 -2.932692265367e-04 1.061227464643e-05 3.483264304481e-05 -2.639423049372e-04 7.172938192513e-06 3.589748607022e-05 -2.698076879386e-04 7.172938044483e-06 3.589748629259e-05 -2.580769192284e-04 1.061227410711e-05 3.483264174293e-05 -2.170192281554e-04 7.172937873049e-06 3.589748493182e-05 -2.228846123795e-04 7.172937721419e-06 3.589748442583e-05 -2.111538429713e-04 1.061227212152e-05 3.483264118381e-05 -1.583653802684e-04 7.172936717707e-06 3.589748363217e-05 -1.642307640594e-04 7.172936137970e-06 3.589748409561e-05 -1.524999946310e-04 1.061227042089e-05 3.483263840917e-05 -4.985577065654e-04 7.172934931020e-06 3.589748139580e-05 -5.044230923782e-04 7.172935201719e-06 3.589747995293e-05 -4.926923231742e-04 1.061227140036e-05 3.483263280004e-05 -4.164423159853e-04 7.172935694662e-06 3.589747414370e-05 -4.223077012385e-04 7.172935446255e-06 3.589747423008e-05 -4.105769297672e-04 1.061227042173e-05 3.483263410159e-05 -3.929807740233e-04 7.172934736437e-06 3.589747495369e-05 -3.988461586958e-04 7.172934638107e-06 3.589747587034e-05 -3.871153878736e-04 1.061227434191e-05 3.483264283616e-05 -2.404807667802e-04 7.172937974437e-06 3.589748619508e-05 -2.463461503913e-04 7.172937982079e-06 3.589748557938e-05 -2.346153815032e-04 1.061227375622e-05 3.483264092478e-05 -1.935576889788e-04 7.172937665699e-06 3.589748376496e-05 -1.994230733763e-04 7.172937505368e-06 3.589748341866e-05 -1.876923033596e-04 1.061227375091e-05 3.483265952886e-05 -1.643611928021e-05 1.061227051487e-05 3.483265032241e-05 -7.508996332657e-05 7.172935494424e-06 3.589749408681e-05 -7.038461195639e-05 1.061227023994e-05 3.483263581657e-05 -3.706792662878e-04 7.172934600732e-06 3.589747674707e-05 -3.753846170950e-04 1.061227153815e-05 3.483263398100e-05 -4.527946613335e-04 7.172935862474e-06 3.589747608379e-05 -4.575000137931e-04 1.061227022850e-05 3.483264703855e-05 -5.583715816372e-04 7.172935210382e-06 3.589749129185e-05 -5.630769327558e-04 1.061226942646e-05 3.483265064983e-05 -5.935638833200e-04 1.061227350025e-05 3.483263990530e-05 -3.214361185873e-04 7.172937328170e-06 3.589748204441e-05 -3.167307658973e-04 1.061227336968e-05 3.483264070920e-05 -1.806668858000e-04 7.172937198135e-06 3.589748336407e-05 -1.759615335618e-04 1.061227485200e-05 3.483264273986e-05 -2.768331076785e-04 7.172938182908e-06 3.589748523201e-05 -2.815384569315e-04 1.012485104658e-05 3.498355202255e-05 -1.231730726772e-04 1.109968861925e-05 3.468173799598e-05 -9.971153496538e-05 1.012485362738e-05 3.498356466856e-05 -4.105769022601e-05 1.109969032442e-05 3.468173352228e-05 -1.466346111768e-04 1.012485175928e-05 3.498355182079e-05 -5.337500124380e-04 1.012485257698e-05 3.498354102410e-05 -4.281730869030e-04 1.012485256263e-05 3.498354613421e-05 -3.460576922541e-04 1.012485121221e-05 3.498354834051e-05 -5.102884755823e-04 1.012485485638e-05 3.498354957701e-05 -2.052884584543e-04 1.012485510080e-05 3.498355078379e-05 -2.287499974094e-04 1.109969356686e-05 3.468173471174e-05 -2.522115359466e-04 1.109968994798e-05 3.468172508363e-05 -4.047115451415e-04 1.012485167621e-05 3.498354530382e-05 -4.868269374213e-04 1.004361570292e-05 3.500871201449e-05 -6.393921110931e-05 1.004361574638e-05 3.500869442061e-05 -4.639454148517e-04 1.118092983764e-05 3.465658109816e-05 -3.102853656204e-04 1.004361478072e-05 3.500869432493e-05 -3.818300198626e-04 1.004361917819e-05 3.500870189312e-05 -2.879838596816e-04 1.004361728458e-05 3.500870051823e-05 -1.695161328597e-04 1.118092557641e-05 3.465658829025e-05 -5.695223321311e-04 0.000000000000e+00 3.656348656603e-05 -1.173076827245e-05 0.000000000000e+00 3.656347604192e-05 -5.982692337359e-04 3.586468213519e-06 3.623048786491e-05 -5.278845876193e-05 0.000000000000e+00 3.656347967773e-05 -4.692307416895e-05 0.000000000000e+00 3.656347683564e-05 -5.865384310050e-05 3.586468825931e-06 3.623049283441e-05 -2.932692108651e-05 0.000000000000e+00 3.656348480576e-05 -2.346153656561e-05 0.000000000000e+00 3.656348231002e-05 -3.519230524969e-05 3.586467284628e-06 3.623047551226e-05 -1.231730715738e-04 0.000000000000e+00 3.656346623700e-05 -1.173076869623e-04 0.000000000000e+00 3.656346521688e-05 -1.290384556945e-04 3.586467126532e-06 3.623047823491e-05 -9.971153409088e-05 0.000000000000e+00 3.656346928799e-05 -9.384614957390e-05 0.000000000000e+00 3.656346753452e-05 -1.055769183030e-04 3.586467472343e-06 3.623048257182e-05 -7.624999646478e-05 0.000000000000e+00 3.656347406692e-05 -7.038461197541e-05 0.000000000000e+00 3.656347154465e-05 -8.211538080005e-05 3.586467883771e-06 3.623047393604e-05 -1.466346094194e-04 0.000000000000e+00 3.656346446069e-05 -1.407692245051e-04 0.000000000000e+00 3.656346394904e-05 -1.524999937548e-04 3.586467693918e-06 3.623046352064e-05 -4.399038582362e-04 0.000000000000e+00 3.656345295528e-05 -4.340384728274e-04 0.000000000000e+00 3.656345373715e-05 -4.457692438880e-04 3.586467295533e-06 3.623046685314e-05 -3.577884608287e-04 0.000000000000e+00 3.656345751152e-05 -3.519230752540e-04 0.000000000000e+00 3.656345556085e-05 -3.636538455344e-04 3.586468043983e-06 3.623046962438e-05 -3.343269204394e-04 0.000000000000e+00 3.656345985724e-05 -3.284615349538e-04 0.000000000000e+00 3.656345885890e-05 -3.401923053176e-04 3.586467785637e-06 3.623047873110e-05 -5.454807819568e-04 0.000000000000e+00 3.656346806373e-05 -5.396153984015e-04 0.000000000000e+00 3.656347032787e-05 -5.513461662460e-04 3.586469158122e-06 3.623047636451e-05 -2.639423026556e-04 0.000000000000e+00 3.656346680579e-05 -2.580769177164e-04 0.000000000000e+00 3.656346661814e-05 -2.698076864999e-04 3.586469029855e-06 3.623047602659e-05 -2.404807654009e-04 0.000000000000e+00 3.656346638101e-05 -2.346153806093e-04 0.000000000000e+00 3.656346682356e-05 -2.463461494710e-04 3.586468956457e-06 3.623047284277e-05 -2.991346105873e-04 0.000000000000e+00 3.656346375627e-05 -2.932692249817e-04 0.000000000000e+00 3.656346228987e-05 -3.049999948514e-04 3.586468949682e-06 3.623047453232e-05 -2.170192272242e-04 0.000000000000e+00 3.656346461206e-05 -2.111538423735e-04 0.000000000000e+00 3.656346543595e-05 -2.228846118210e-04 3.586467604665e-06 3.623046686438e-05 -4.750961695796e-04 0.000000000000e+00 3.656345589613e-05 -4.692307849309e-04 0.000000000000e+00 3.656345741647e-05 -4.809615549907e-04 3.586467303411e-06 3.623048541687e-05 -5.924038500485e-04 0.000000000000e+00 3.656347525300e-05 -5.865384672679e-04 3.586467624229e-06 3.623047389096e-05 -5.220192455526e-04 0.000000000000e+00 3.656346294104e-05 -5.161538620148e-04 0.000000000000e+00 3.656346555302e-05 -5.278846303345e-04 3.586467610263e-06 3.623046264062e-05 -4.164423154910e-04 0.000000000000e+00 3.656345249742e-05 -4.105769296305e-04 0.000000000000e+00 3.656345253452e-05 -4.223077014993e-04 3.586467133313e-06 3.623046434556e-05 -3.812500018942e-04 0.000000000000e+00 3.656345458980e-05 -3.753846160251e-04 0.000000000000e+00 3.656345365872e-05 -3.871153870458e-04 3.586468817148e-06 3.623047326271e-05 -1.935576878267e-04 0.000000000000e+00 3.656346338461e-05 -1.876923027085e-04 0.000000000000e+00 3.656346389632e-05 -1.994230728523e-04 3.586468506434e-06 3.623047311598e-05 -1.700961481901e-04 0.000000000000e+00 3.656346352812e-05 -1.642307630669e-04 0.000000000000e+00 3.656346338076e-05 -1.759615329217e-04 3.586467563646e-06 3.623048264110e-05 -5.689423166540e-04 0.000000000000e+00 3.656347243989e-05 -5.630769335251e-04 0.000000000000e+00 3.656347403696e-05 -5.748077003858e-04 3.586467359697e-06 3.623046991903e-05 -4.985577086627e-04 0.000000000000e+00 3.656345899574e-05 -4.926923246130e-04 0.000000000000e+00 3.656346093204e-05 -5.044230934706e-04 3.586468907788e-06 3.623049512582e-05 -1.643273545588e-05 3.586467839053e-06 3.623046445833e-05 -4.527980461103e-04 0.000000000000e+00 3.656345479218e-05 -4.575000145435e-04 3.586469093704e-06 3.623047453331e-05 -2.862404236780e-04 0.000000000000e+00 3.656346542711e-05 -2.815384556912e-04 3.586468435465e-06 3.623047072538e-05 -3.214327333647e-04 0.000000000000e+00 3.656346109369e-05 -3.167307649596e-04 3.586467106204e-06 3.623046338295e-05 -3.941441898847e-04 0.000000000000e+00 3.656345292355e-05 -3.988461582262e-04 4.095798897631e-06 3.618318721831e-05 -1.114423028778e-04 3.077135511308e-06 3.627776972144e-05 -8.798076533384e-05 3.077136726950e-06 3.627778010219e-05 -4.105768990971e-05 3.077135797623e-06 3.627776415469e-05 -1.349038403396e-04 3.077136016040e-06 3.627777471824e-05 -6.451922760799e-05 4.095800113990e-06 3.618318396117e-05 -1.583653786681e-04 4.095799414027e-06 3.618318696312e-05 -5.337500138194e-04 3.077135714211e-06 3.627775774178e-05 -4.868269393781e-04 3.077135970031e-06 3.627777043176e-05 -5.572115496691e-04 4.095799403369e-06 3.618319459208e-05 -5.806730835640e-04 3.077135926985e-06 3.627775784373e-05 -3.460576905700e-04 4.095798865770e-06 3.618317597393e-05 -3.695192313814e-04 3.077137024725e-06 3.627776600787e-05 -2.522115338851e-04 4.095800847365e-06 3.618318427416e-05 -2.052884577141e-04 3.077137046413e-06 3.627776501270e-05 -2.287499963078e-04 3.077135789427e-06 3.627776137974e-05 -5.102884773144e-04 3.077136794718e-06 3.627776261372e-05 -1.818269179920e-04 3.077135805424e-06 3.627775225413e-05 -4.281730870723e-04 4.180687855514e-06 3.617529192769e-05 -4.052932524882e-04 2.992247221859e-06 3.628563655973e-05 -4.639471081091e-04 2.992248496834e-06 3.628564698424e-05 -2.750913629259e-04 2.992248078766e-06 3.628564277093e-05 -3.102836716818e-04 4.523766190742e-06 3.614346106049e-05 -6.012019247342e-04 0.000000000000e+00 3.181386831881e-05 -2.158943576813e-04 0.000000000000e+00 4.619572898075e-06 -3.575128176916e-04 0.000000000000e+00 4.619573696011e-06 -4.753718440441e-04 0.000000000000e+00 3.194495957400e-05 -4.764951989209e-04 0.000000000000e+00 3.194495967217e-05 -3.563894328805e-04 0.000000000000e+00 4.609937005565e-06 -7.489167103595e-05 0.000000000000e+00 4.609935253379e-06 -5.351083380257e-04 0.000000000000e+00 3.195354448085e-05 -7.489166938685e-05 0.000000000000e+00 3.191601332898e-05 -1.562351859266e-04 0.000000000000e+00 3.194531729893e-05 -5.437207755697e-04 0.000000000000e+00 4.184798989078e-06 -4.164423336218e-04 0.000000000000e+00 3.240501950281e-05 -4.164423160246e-04 0.000000000000e+00 3.238227649372e-05 -2.996406784134e-04 0.000000000000e+00 3.221658830082e-05 -4.484939504604e-04 0.000000000000e+00 3.221658781512e-05 -3.843906815437e-04 0.000000000000e+00 4.317647144921e-06 -4.480989061363e-04 0.000000000000e+00 4.317647198460e-06 -3.847857598466e-04 0.000000000000e+00 3.260105161553e-05 -1.231730725564e-04 0.000000000000e+00 1.351486319597e-05 -2.091829664134e-04 0.000000000000e+00 1.110285423976e-05 -2.188955876190e-04 0.000000000000e+00 1.035884404352e-05 -2.056627201085e-04 0.000000000000e+00 3.971734291026e-06 -2.989847439302e-04 0.000000000000e+00 3.247320568480e-05 -2.300906341894e-04 0.000000000000e+00 4.270341610756e-06 -2.012459297037e-04 0.000000000000e+00 2.185023032514e-05 -4.524797593489e-04 0.000000000000e+00 1.747160845519e-05 -4.543029808109e-04 0.000000000000e+00 1.860887459599e-05 -4.402958199878e-04 0.000000000000e+00 4.103842665948e-06 -2.376652978563e-04 0.000000000000e+00 1.684845445720e-05 -1.317140679151e-05 0.000000000000e+00 1.684844764344e-05 -5.968285962907e-04 0.000000000000e+00 3.996304494404e-06 -3.438546629202e-04 0.000000000000e+00 3.939722474321e-06 -2.619899360155e-04 0.000000000000e+00 1.221321336232e-05 -1.599216338065e-04 0.000000000000e+00 1.560042917081e-05 -1.610769371909e-04 0.000000000000e+00 1.319689777667e-05 -1.722912129562e-04 0.000000000000e+00 1.429718462948e-05 -1.509378939106e-04 0.000000000000e+00 3.684970369204e-06 -1.231730704131e-04 0.000000000000e+00 5.218729921838e-06 -1.341819119773e-04 0.000000000000e+00 6.957708024425e-06 -1.223949062072e-04 0.000000000000e+00 2.031868063585e-05 -3.227659075819e-04 0.000000000000e+00 1.615120665232e-05 -3.225914385674e-04 0.000000000000e+00 1.847574518967e-05 -3.083219721119e-04 0.000000000000e+00 1.833598838627e-05 -3.368217359767e-04 0.000000000000e+00 2.029578518858e-05 -5.101053802352e-04 0.000000000000e+00 1.618448328222e-05 -5.111190509701e-04 0.000000000000e+00 1.819059964147e-05 -4.967428069730e-04 0.000000000000e+00 1.842748002036e-05 -5.245021669320e-04 0.000000000000e+00 1.623437669406e-05 -1.010034593100e-04 0.000000000000e+00 2.008804338568e-05 -1.005739791885e-04 0.000000000000e+00 1.844216299022e-05 -1.111850131782e-04 0.000000000000e+00 1.758853580594e-05 -8.867729001640e-05 0.000000000000e+00 2.027590795945e-05 -2.527590075578e-04 0.000000000000e+00 1.653564142773e-05 -2.524805933224e-04 0.000000000000e+00 1.872794410922e-05 -2.409940145956e-04 0.000000000000e+00 1.834614358685e-05 -2.638942000955e-04 0.000000000000e+00 3.677838185372e-06 -3.223759957536e-04 0.000000000000e+00 3.677838482502e-06 -5.100682853934e-04 0.000000000000e+00 3.288562863984e-05 -5.105086622478e-04 0.000000000000e+00 3.288562652908e-05 -3.228163385363e-04 0.000000000000e+00 2.183028228534e-05 -3.925586997928e-04 0.000000000000e+00 1.795949426332e-05 -3.974382474828e-04 0.000000000000e+00 1.833076788109e-05 -3.821287850443e-04 0.000000000000e+00 2.363722729895e-05 -1.416909026518e-04 0.000000000000e+00 2.775638413671e-05 -1.382683479495e-04 0.000000000000e+00 2.603462070796e-05 -1.518224027237e-04 0.000000000000e+00 1.492718019219e-05 -3.913732377690e-04 0.000000000000e+00 1.442246913855e-05 -4.041939635064e-04 0.000000000000e+00 3.264076082901e-05 -4.897055725979e-04 0.000000000000e+00 9.407252978916e-06 -5.976610494253e-04 0.000000000000e+00 9.407256925798e-06 -1.233895317479e-05 0.000000000000e+00 2.715623873633e-05 -5.976610496172e-04 0.000000000000e+00 2.715624815948e-05 -1.233895304253e-05 0.000000000000e+00 3.780184445640e-06 -4.883895336056e-04 0.000000000000e+00 3.270055174519e-05 -6.185825563838e-05 0.000000000000e+00 3.862932202011e-06 -6.185825790318e-05 0.000000000000e+00 3.862930848976e-06 -5.481417508832e-04 0.000000000000e+00 3.931033986033e-06 -1.771477898397e-04 0.000000000000e+00 8.899303071308e-06 -1.787196859062e-04 0.000000000000e+00 6.645146819355e-06 -1.661691703132e-04 0.000000000000e+00 6.275081492159e-06 -1.902897482387e-04 0.000000000000e+00 1.499307519256e-05 -4.448030374265e-04 0.000000000000e+00 2.683652970389e-05 -2.791237697577e-04 0.000000000000e+00 3.165551902380e-05 -2.849063177202e-04 0.000000000000e+00 2.710997275882e-05 -2.921337946744e-04 0.000000000000e+00 2.301600403885e-05 -2.884049669736e-04 0.000000000000e+00 3.006948855089e-05 -2.681905197160e-04 0.000000000000e+00 2.572677894723e-05 -2.655537969598e-04 0.000000000000e+00 2.351544105681e-05 -2.746937359377e-04 0.000000000000e+00 1.664536772951e-05 -5.707820862316e-04 0.000000000000e+00 1.679160226050e-05 -5.574510927386e-04 0.000000000000e+00 1.964073566651e-05 -5.660515580058e-04 0.000000000000e+00 2.019698077352e-05 -5.401655792252e-05 0.000000000000e+00 2.234793331447e-05 -6.775369774277e-05 0.000000000000e+00 1.818365555252e-05 -6.667311105603e-05 0.000000000000e+00 2.098439783735e-05 -4.057633137026e-05 0.000000000000e+00 1.722823801940e-05 -4.407307360271e-05 0.000000000000e+00 2.399314636262e-05 -5.674536744900e-05 0.000000000000e+00 2.009359313862e-05 -2.966735256093e-04 0.000000000000e+00 1.874231236828e-05 -2.864237355714e-04 0.000000000000e+00 2.301687124733e-05 -3.033632868471e-04 0.000000000000e+00 8.623262794302e-06 -1.351101423134e-04 0.000000000000e+00 1.255930970677e-05 -1.383325860072e-04 0.000000000000e+00 9.642485022090e-06 -1.449161987199e-04 0.000000000000e+00 2.460828495366e-05 -1.646682346954e-04 0.000000000000e+00 2.238349123572e-05 -1.551322766557e-04 0.000000000000e+00 1.970495837204e-05 -1.453626017896e-04 0.000000000000e+00 1.899594839791e-05 -1.589546178645e-04 0.000000000000e+00 3.284726622376e-05 -3.438333197425e-04 0.000000000000e+00 6.159697823557e-06 -2.858660978541e-04 0.000000000000e+00 9.830056423243e-06 -2.797281777084e-04 0.000000000000e+00 9.399645894728e-06 -2.908107594587e-04 0.000000000000e+00 7.073630231265e-06 -2.703964823693e-04 0.000000000000e+00 1.095553685739e-05 -2.663175992515e-04 0.000000000000e+00 1.328450373898e-05 -2.765391646595e-04 0.000000000000e+00 1.671556016846e-05 -7.667810137822e-05 0.000000000000e+00 1.414197784495e-05 -6.812809734374e-05 0.000000000000e+00 1.348513046676e-05 -8.178007797265e-05 0.000000000000e+00 1.995454250974e-05 -5.354304112264e-04 0.000000000000e+00 2.262527418536e-05 -5.422168233303e-04 0.000000000000e+00 1.881207556175e-05 -5.452213423211e-04 0.000000000000e+00 2.259751734552e-05 -5.292684393378e-04 0.000000000000e+00 2.722259360968e-05 -2.094861321864e-04 0.000000000000e+00 2.756419284239e-05 -2.202531774712e-04 0.000000000000e+00 3.018965886092e-05 -1.997195985060e-04 0.000000000000e+00 3.286806022084e-05 -5.313106765616e-04 0.000000000000e+00 1.966753038913e-05 -1.801051383842e-04 0.000000000000e+00 2.221234221428e-05 -1.916966368105e-04 0.000000000000e+00 1.779427537744e-05 -1.919510710894e-04 0.000000000000e+00 1.936614893219e-05 -2.046881550323e-04 0.000000000000e+00 2.343437403352e-05 -2.058706794441e-04 0.000000000000e+00 2.587451407453e-05 -2.397352155878e-04 0.000000000000e+00 2.795368742576e-05 -2.541692238728e-04 0.000000000000e+00 2.401566120910e-05 -2.530069459519e-04 0.000000000000e+00 3.135082099228e-05 -2.559122507591e-04 0.000000000000e+00 3.060192495443e-05 -2.429366621300e-04 0.000000000000e+00 2.213258129324e-05 -2.429116380383e-04 0.000000000000e+00 2.172652806253e-05 -2.287281606204e-04 0.000000000000e+00 2.227370157155e-05 -5.003618224440e-04 0.000000000000e+00 2.610336451369e-05 -4.973738716083e-04 0.000000000000e+00 2.428159908863e-05 -5.096401074993e-04 0.000000000000e+00 2.254416424901e-05 -4.882285441107e-04 0.000000000000e+00 1.384182292144e-05 -5.224996970095e-04 0.000000000000e+00 1.000819113344e-05 -5.218946903454e-04 0.000000000000e+00 1.213392326685e-05 -5.111631372210e-04 0.000000000000e+00 1.476360839350e-05 -5.340983054350e-04 0.000000000000e+00 1.372507877383e-05 -3.344888667359e-04 0.000000000000e+00 9.815133386773e-06 -3.337210382498e-04 0.000000000000e+00 1.199866001829e-05 -3.224496030056e-04 0.000000000000e+00 1.459942010343e-05 -3.464995860561e-04 0.000000000000e+00 1.675131393590e-05 -4.855252521659e-04 0.000000000000e+00 1.414903889315e-05 -4.784130565757e-04 0.000000000000e+00 1.793489659277e-05 -4.760061193878e-04 0.000000000000e+00 1.403577199320e-05 -4.914888131901e-04 0.000000000000e+00 9.859567574063e-06 -3.108819264017e-04 0.000000000000e+00 1.379454665865e-05 -3.104614207945e-04 0.000000000000e+00 1.478409204396e-05 -2.982390817694e-04 0.000000000000e+00 2.617802542151e-05 -1.970229294428e-04 0.000000000000e+00 2.581414081507e-05 -1.852097773270e-04 0.000000000000e+00 7.955329356323e-06 -3.222576632291e-04 0.000000000000e+00 6.046130993894e-06 -3.333236633661e-04 0.000000000000e+00 6.027120082566e-06 -3.108336745982e-04 0.000000000000e+00 3.769693293689e-06 -1.258922602300e-05 0.000000000000e+00 3.279380304185e-05 -1.258922526585e-05 0.000000000000e+00 3.279379281314e-05 -5.974107775741e-04 0.000000000000e+00 3.769691476160e-06 -5.974107769225e-04 0.000000000000e+00 2.445744108461e-05 -2.177795486998e-04 0.000000000000e+00 2.031800303241e-05 -2.754490868069e-04 0.000000000000e+00 2.201075733669e-05 -2.641743101681e-04 0.000000000000e+00 3.295345519643e-05 -2.731816671600e-04 0.000000000000e+00 1.399348863188e-05 -1.921377475080e-04 0.000000000000e+00 1.578097994959e-05 -1.818762680393e-04 0.000000000000e+00 2.701120252420e-05 -4.285179723322e-04 0.000000000000e+00 2.381240322682e-05 -4.165394790745e-04 0.000000000000e+00 2.844431904905e-05 -4.164048839186e-04 0.000000000000e+00 2.381457464483e-05 -4.295539504658e-04 0.000000000000e+00 2.692381695208e-05 -4.041181518588e-04 0.000000000000e+00 2.358054538533e-05 -4.029226188313e-04 0.000000000000e+00 1.048174773039e-05 -1.140638875289e-04 0.000000000000e+00 8.008653327452e-06 -1.014264112274e-04 0.000000000000e+00 1.238253598993e-05 -1.018543059014e-04 0.000000000000e+00 2.569122708526e-05 -1.148503299081e-04 0.000000000000e+00 2.190205923064e-05 -1.113731381102e-04 0.000000000000e+00 2.408087279447e-05 -1.015602529555e-04 0.000000000000e+00 2.276064886853e-05 -1.210232167160e-04 0.000000000000e+00 2.849700228862e-05 -1.025268032852e-04 0.000000000000e+00 9.257478860599e-06 -3.639882419576e-04 0.000000000000e+00 8.912830075871e-06 -3.533376964030e-04 0.000000000000e+00 6.644631525647e-06 -3.732383568834e-04 0.000000000000e+00 1.046981805335e-05 -3.765637540945e-04 0.000000000000e+00 1.293787100081e-05 -3.671069978791e-04 0.000000000000e+00 8.940099300508e-06 -4.689907375371e-04 0.000000000000e+00 8.601546587321e-06 -4.790307019092e-04 0.000000000000e+00 6.560193069345e-06 -4.597926774971e-04 0.000000000000e+00 1.020849167728e-05 -4.570658901009e-04 0.000000000000e+00 1.237442161026e-05 -4.669704202150e-04 0.000000000000e+00 3.304065152096e-05 -9.785921101740e-05 0.000000000000e+00 3.003771014709e-05 -8.862978288635e-05 0.000000000000e+00 3.144160398617e-05 -1.098366854927e-04 0.000000000000e+00 2.053580728580e-05 -1.149115091863e-05 0.000000000000e+00 1.798276686443e-05 -2.403909993916e-05 0.000000000000e+00 2.053579932580e-05 -5.985088516003e-04 0.000000000000e+00 1.474727330930e-05 -1.124341697152e-04 0.000000000000e+00 1.357763288253e-05 -1.242872413834e-04 0.000000000000e+00 2.753375674921e-05 -3.632681660193e-04 0.000000000000e+00 2.790750994585e-05 -3.534376534851e-04 0.000000000000e+00 2.999908272144e-05 -3.720959691045e-04 0.000000000000e+00 2.731118662939e-05 -4.695402264254e-04 0.000000000000e+00 2.775758940861e-05 -4.795913256863e-04 0.000000000000e+00 2.995301740810e-05 -4.606199563106e-04 0.000000000000e+00 1.973874437579e-05 -3.478112795804e-04 0.000000000000e+00 2.226761799747e-05 -3.547437169392e-04 0.000000000000e+00 1.851373947057e-05 -3.575566551123e-04 0.000000000000e+00 2.244920081429e-05 -3.416778185285e-04 0.000000000000e+00 2.744374250895e-05 -7.970786980170e-05 0.000000000000e+00 2.774222917008e-05 -6.930224996637e-05 0.000000000000e+00 1.065720595459e-05 -2.394889366724e-04 0.000000000000e+00 1.479070165091e-05 -2.407131779261e-04 0.000000000000e+00 1.263576011462e-05 -2.528795199564e-04 0.000000000000e+00 1.321389575906e-05 -2.293755450074e-04 0.000000000000e+00 1.233149241866e-05 -2.885401952169e-04 0.000000000000e+00 3.318192186070e-05 -2.044331550525e-04 0.000000000000e+00 1.701059065330e-05 -2.293431261470e-04 0.000000000000e+00 1.852260909527e-05 -2.176409486096e-04 0.000000000000e+00 1.738310047821e-05 -1.236308092580e-04 0.000000000000e+00 1.470385850606e-05 -2.643787030532e-04 0.000000000000e+00 1.010327907202e-05 -5.853602687948e-04 0.000000000000e+00 6.728056528534e-06 -5.906375099697e-04 0.000000000000e+00 1.305779957510e-05 -5.914529582454e-04 0.000000000000e+00 2.658969928011e-05 -5.861240314769e-04 0.000000000000e+00 2.985920725586e-05 -5.907051358859e-04 0.000000000000e+00 2.373871681956e-05 -5.924581678159e-04 0.000000000000e+00 2.618525804864e-05 -2.401861316552e-05 0.000000000000e+00 2.977250734296e-05 -1.932298881295e-05 0.000000000000e+00 2.390096222841e-05 -1.681911813588e-05 0.000000000000e+00 9.960257571555e-06 -2.404818598542e-05 0.000000000000e+00 6.707857594535e-06 -1.930916370136e-05 0.000000000000e+00 1.281952179388e-05 -1.817403245005e-05 0.000000000000e+00 1.021755595155e-05 -1.930871972297e-04 0.000000000000e+00 2.258936648386e-05 -3.782313088550e-04 0.000000000000e+00 2.516690104222e-05 -3.863698734541e-04 0.000000000000e+00 3.088036831618e-05 -1.863832354088e-04 0.000000000000e+00 2.843744959479e-05 -1.816447659300e-04 0.000000000000e+00 3.049536233776e-05 -1.727536094871e-04 0.000000000000e+00 3.403640161505e-06 -2.739270684210e-04 0.000000000000e+00 2.840062723222e-05 -5.099613931581e-04 0.000000000000e+00 2.621036384077e-05 -5.220190536783e-04 0.000000000000e+00 3.042972346655e-05 -4.993363055994e-04 0.000000000000e+00 3.056272469276e-05 -5.210533423726e-04 0.000000000000e+00 2.821915782325e-05 -3.228958015277e-04 0.000000000000e+00 2.612190016915e-05 -3.346575290086e-04 0.000000000000e+00 2.419657421381e-05 -3.230944385400e-04 0.000000000000e+00 2.987204087780e-05 -3.102696317923e-04 0.000000000000e+00 3.052077256600e-05 -3.335786070786e-04 0.000000000000e+00 1.417540663802e-05 -3.791108076174e-04 0.000000000000e+00 1.174090603003e-05 -3.887314991189e-04 0.000000000000e+00 1.657611574873e-05 -3.686239472262e-04 0.000000000000e+00 3.338791296382e-05 -4.048733091783e-04 0.000000000000e+00 3.338791308699e-05 -4.280113225649e-04 0.000000000000e+00 3.146840961714e-06 -3.695192635588e-04 0.000000000000e+00 3.146841479258e-06 -4.633654008202e-04 0.000000000000e+00 9.931108603262e-06 -4.017271508028e-04 0.000000000000e+00 8.140321449337e-06 -3.870037751793e-04 0.000000000000e+00 5.804024813992e-06 -3.968007906874e-04 0.000000000000e+00 8.054405905052e-06 -4.461945804078e-04 0.000000000000e+00 9.874865264762e-06 -4.312179772271e-04 0.000000000000e+00 1.163018610973e-05 -4.452843166523e-04 0.000000000000e+00 5.780002059257e-06 -4.361287669064e-04 0.000000000000e+00 8.093270727946e-06 -5.105134684147e-04 0.000000000000e+00 1.035315106188e-05 -4.985312023988e-04 0.000000000000e+00 6.259145029765e-06 -5.219765002912e-04 0.000000000000e+00 6.004100359048e-06 -4.991859620820e-04 0.000000000000e+00 3.466904635505e-06 -2.259097660029e-04 0.000000000000e+00 5.044366204127e-06 -2.168055098298e-04 0.000000000000e+00 7.511022488850e-06 -2.278157184793e-04 0.000000000000e+00 3.166416734861e-06 -4.278892545653e-04 0.000000000000e+00 3.166416869396e-06 -4.049954135169e-04 0.000000000000e+00 2.094792532491e-05 -5.546423399924e-04 0.000000000000e+00 2.457288423692e-05 -5.529912153230e-04 0.000000000000e+00 1.583710308081e-05 -5.593814429163e-05 0.000000000000e+00 1.220145034880e-05 -5.720392705151e-05 0.000000000000e+00 1.526529012639e-05 -3.575543161847e-04 0.000000000000e+00 2.852728542386e-05 -3.844524055552e-04 0.000000000000e+00 3.032427829127e-05 -3.961666106421e-04 0.000000000000e+00 2.852462187428e-05 -4.480521417397e-04 0.000000000000e+00 3.035075781173e-05 -4.365898466671e-04 0.000000000000e+00 3.518296485659e-06 -1.638969473763e-04 0.000000000000e+00 4.892056123149e-06 -1.530951071327e-04 0.000000000000e+00 3.432734183110e-06 -9.628285956565e-05 0.000000000000e+00 5.143668576257e-06 -1.064976084150e-04 0.000000000000e+00 6.942783272052e-06 -8.903501849138e-05 0.000000000000e+00 1.380289788214e-05 -5.795616191995e-04 0.000000000000e+00 1.040101410270e-05 -5.736280377096e-04 0.000000000000e+00 1.766802166442e-05 -5.818726254850e-04 0.000000000000e+00 2.188117598815e-05 -2.702453878902e-05 0.000000000000e+00 2.517173878671e-05 -3.697646562714e-05 0.000000000000e+00 2.821297221508e-05 -1.614860189795e-04 0.000000000000e+00 3.356872324188e-05 -1.700961482098e-04 0.000000000000e+00 2.252551243964e-05 -4.386913566474e-04 0.000000000000e+00 2.520536541059e-05 -4.454499219479e-04 0.000000000000e+00 1.201420811007e-05 -4.163188899824e-04 0.000000000000e+00 8.139541032328e-06 -4.164387820256e-04 0.000000000000e+00 1.392280920744e-05 -4.273744603617e-04 0.000000000000e+00 2.013172034069e-05 -7.841245792008e-05 0.000000000000e+00 2.384252220523e-05 -8.026623144716e-05 0.000000000000e+00 8.770999084833e-06 -1.554244255236e-04 0.000000000000e+00 3.359229522558e-05 -4.633653987711e-04 0.000000000000e+00 3.359229480785e-05 -3.695192324410e-04 0.000000000000e+00 3.360519689249e-05 -3.108653814984e-04 0.000000000000e+00 2.958269168268e-06 -5.220192398819e-04 0.000000000000e+00 2.847168003163e-05 -4.065030187620e-05 0.000000000000e+00 3.180227291927e-05 -3.630586103290e-05 0.000000000000e+00 2.992642588673e-05 -5.082118723380e-05 0.000000000000e+00 4.761220055660e-06 -3.630586274733e-05 0.000000000000e+00 7.819786804451e-06 -4.065292530110e-05 0.000000000000e+00 6.457682247953e-06 -5.147286071810e-05 0.000000000000e+00 3.192797392903e-05 -5.729805068581e-04 0.000000000000e+00 2.891195460008e-05 -5.696125608955e-04 0.000000000000e+00 3.071714504159e-05 -5.603016613614e-04 0.000000000000e+00 1.730876321798e-05 -4.275256239404e-04 0.000000000000e+00 1.574121644223e-05 -4.168290935467e-04 0.000000000000e+00 1.929298379296e-05 -4.171414513677e-04 0.000000000000e+00 3.323447213831e-05 -2.597746749176e-05 0.000000000000e+00 3.329019383541e-06 -5.840225358986e-04 0.000000000000e+00 4.761218000962e-06 -5.736941439616e-04 0.000000000000e+00 3.329020507304e-06 -2.597746928940e-05 0.000000000000e+00 3.323446300479e-05 -5.840225375450e-04 0.000000000000e+00 2.605965711402e-05 -4.571171317332e-04 0.000000000000e+00 2.350870049273e-05 -4.662060796529e-04 0.000000000000e+00 2.626690349210e-05 -3.750124246726e-04 0.000000000000e+00 2.397777412736e-05 -3.659349131044e-04 0.000000000000e+00 3.364481952940e-05 -5.572115484803e-04 0.000000000000e+00 3.358543813827e-05 -2.408265957601e-04 0.000000000000e+00 9.645281398057e-06 -5.503929706241e-04 0.000000000000e+00 1.006666762112e-05 -5.620575989146e-04 0.000000000000e+00 6.579577434568e-06 -5.587591546996e-04 0.000000000000e+00 1.286480303846e-05 -5.540962645931e-04 0.000000000000e+00 2.034423544745e-05 -3.678315305766e-04 0.000000000000e+00 1.224844828964e-05 -5.428774690736e-04 0.000000000000e+00 9.584566276163e-06 -5.404260845390e-04 0.000000000000e+00 2.798135097150e-05 -5.506468938338e-04 0.000000000000e+00 2.811739117852e-05 -5.409299721997e-04 0.000000000000e+00 3.330741413485e-05 -8.524745679655e-05 0.000000000000e+00 8.306614073329e-06 -2.546781126724e-04 0.000000000000e+00 5.344939114652e-06 -2.496517302141e-04 0.000000000000e+00 1.970458799503e-05 -4.652322500865e-04 0.000000000000e+00 2.133571261420e-05 -4.761402950274e-04 0.000000000000e+00 3.236286820474e-06 -8.510723615821e-05 0.000000000000e+00 1.556456133421e-05 -4.354439903848e-04 0.000000000000e+00 3.323526948589e-05 -4.633608969756e-05 0.000000000000e+00 3.328216667096e-06 -5.636639155268e-04 0.000000000000e+00 3.328217784069e-06 -4.633609225525e-05 0.000000000000e+00 3.005490387631e-06 -3.332523293091e-04 0.000000000000e+00 2.630350608259e-05 -4.845936582194e-05 0.000000000000e+00 2.713230597961e-05 -5.891295598230e-05 0.000000000000e+00 2.797000017924e-06 -3.108654102972e-04 0.000000000000e+00 1.675379400973e-05 -2.753498623033e-04 0.000000000000e+00 7.804363555691e-06 -5.695038617449e-04 0.000000000000e+00 2.911263596948e-05 -4.881831863966e-04 0.000000000000e+00 3.370738217295e-05 -1.470078675243e-04 0.000000000000e+00 3.357913507114e-05 -1.336354049735e-04 0.000000000000e+00 3.106247266978e-05 -1.399655513929e-04 0.000000000000e+00 7.446911882960e-06 -3.444266973666e-04 0.000000000000e+00 2.818473827291e-06 -4.988383200563e-04 0.000000000000e+00 2.898784907027e-05 -2.295125193083e-04 0.000000000000e+00 1.498671537608e-05 -2.190392024663e-04 0.000000000000e+00 1.508607021285e-05 -3.363340061773e-05 0.000000000000e+00 1.345627924717e-05 -4.588084917778e-05 0.000000000000e+00 1.085024911035e-05 -3.593786940276e-05 0.000000000000e+00 2.137548958666e-05 -5.759208138541e-04 0.000000000000e+00 2.321144932591e-05 -5.642466259538e-04 0.000000000000e+00 2.572717206647e-05 -5.741752051321e-04 0.000000000000e+00 2.926207231154e-05 -5.321466065209e-04 0.000000000000e+00 2.801042655269e-06 -2.518422309790e-04 0.000000000000e+00 8.105229083880e-06 -5.325738244222e-04 0.000000000000e+00 2.918464397089e-05 -3.446553572206e-04 0.000000000000e+00 3.364912448107e-05 -3.940938888273e-04 0.000000000000e+00 3.364912476713e-05 -4.387907428506e-04 0.000000000000e+00 1.591319342526e-05 -4.661534069898e-04 0.000000000000e+00 3.029289838903e-05 -4.076544517589e-04 0.000000000000e+00 3.031378199987e-05 -4.251525470064e-04 0.000000000000e+00 3.361214389836e-05 -4.999960892784e-04 0.000000000000e+00 7.354887399999e-06 -4.879091426823e-04 0.000000000000e+00 3.369888907752e-05 -3.334438842703e-04 0.000000000000e+00 6.251038882906e-06 -4.255513249191e-04 0.000000000000e+00 6.266839437800e-06 -4.073497881387e-04 0.000000000000e+00 3.368357942633e-05 -5.209360762703e-04 0.000000000000e+00 7.758617292853e-06 -2.995932626673e-04 0.000000000000e+00 3.008019435627e-06 -1.914134794475e-04 0.000000000000e+00 7.232627938847e-06 -2.418850974374e-04 0.000000000000e+00 2.904603885207e-06 -4.385241185515e-04 0.000000000000e+00 2.904604025088e-06 -3.943605494726e-04 0.000000000000e+00 2.988406908142e-06 -1.445403286871e-04 0.000000000000e+00 1.561694636282e-05 -2.013409739221e-04 0.000000000000e+00 2.488901845826e-05 -1.286089858300e-04 0.000000000000e+00 2.845085719079e-05 -1.251302897734e-04 0.000000000000e+00 3.383251820191e-05 -1.941274260886e-04 0.000000000000e+00 1.551149942558e-05 -2.866341474369e-04 0.000000000000e+00 1.340073116166e-05 -5.662205641098e-04 0.000000000000e+00 2.716371029395e-05 -3.933243320237e-04 0.000000000000e+00 2.724908681974e-05 -4.390631465108e-04 0.000000000000e+00 2.065472159976e-05 -4.058494438197e-04 0.000000000000e+00 1.560608194732e-05 -1.327121603040e-04 0.000000000000e+00 1.805335949826e-05 -1.350733715076e-04 0.000000000000e+00 3.399056967746e-05 -1.114423036159e-04 0.000000000000e+00 2.233597593495e-05 -3.142551822346e-04 0.000000000000e+00 1.544476543119e-05 -5.451842080952e-04 0.000000000000e+00 2.376627707122e-05 -8.281823531014e-06 0.000000000000e+00 2.376626820521e-05 -6.017181780983e-04 0.000000000000e+00 1.279723149597e-05 -8.281823462863e-06 0.000000000000e+00 1.279722599577e-05 -6.017181783198e-04 0.000000000000e+00 2.836471895251e-06 -1.133017531691e-04 0.000000000000e+00 2.987380125718e-05 -6.320218605689e-05 0.000000000000e+00 6.751167319645e-06 -1.114510419778e-04 0.000000000000e+00 1.047906115020e-05 -1.266578712942e-04 0.000000000000e+00 1.857981567081e-05 -3.403755883115e-05 0.000000000000e+00 1.883113876049e-05 -5.736647247888e-04 0.000000000000e+00 2.086490704415e-05 -4.281784001135e-04 0.000000000000e+00 1.416508348740e-05 -5.019226575711e-04 0.000000000000e+00 2.199950370110e-05 -9.014295846166e-05 0.000000000000e+00 2.471573683824e-05 -4.775253422424e-04 0.000000000000e+00 2.677557366856e-05 -1.738057364283e-04 0.000000000000e+00 2.231382836804e-05 -3.316085719494e-04 0.000000000000e+00 2.237984221703e-05 -5.189404364525e-04 0.000000000000e+00 1.407495306206e-05 -9.285333688934e-05 0.000000000000e+00 2.912023090160e-05 -3.060907636723e-05 0.000000000000e+00 2.936757695341e-05 -5.795010914261e-04 0.000000000000e+00 7.238549586924e-06 -3.046609455526e-05 0.000000000000e+00 2.097200981805e-05 -1.307641852556e-04 0.000000000000e+00 1.759448935885e-05 -4.083233115423e-04 0.000000000000e+00 9.932114848976e-06 -1.668199006485e-04 0.000000000000e+00 2.976118530088e-05 -1.491573411019e-04 0.000000000000e+00 1.200860152512e-05 -3.556836396020e-04 0.000000000000e+00 3.408389656313e-05 -2.638379626147e-04 0.000000000000e+00 1.745293664987e-05 -1.704463996012e-04 0.000000000000e+00 1.276733271897e-05 -3.965386263183e-04 0.000000000000e+00 2.930078175369e-05 -1.149892960848e-04 0.000000000000e+00 2.830458236129e-05 -1.900518087114e-04 0.000000000000e+00 7.011192534560e-06 -5.441614267390e-04 0.000000000000e+00 6.643420519742e-06 -6.628753004685e-05 0.000000000000e+00 9.206074759086e-06 -5.999781756581e-05 0.000000000000e+00 9.145679398828e-06 -7.089064994630e-05 0.000000000000e+00 1.374729732427e-05 -4.557576090433e-04 0.000000000000e+00 2.334548770272e-05 -1.771926428507e-04 0.000000000000e+00 3.067393144275e-05 -1.319595746683e-04 0.000000000000e+00 2.147975380778e-05 -2.148573011840e-04 0.000000000000e+00 2.110285876946e-05 -1.677982918589e-04 0.000000000000e+00 2.998672800982e-05 -6.004671734354e-04 0.000000000000e+00 6.576760696115e-06 -6.004671730094e-04 0.000000000000e+00 2.998673782665e-05 -9.532828818515e-06 0.000000000000e+00 6.576763820952e-06 -9.532829134995e-06 0.000000000000e+00 1.062911454584e-05 -2.289369753480e-04 0.000000000000e+00 2.600055739248e-05 -9.061724551842e-05 0.000000000000e+00 2.523378579942e-05 -6.513690686085e-05 0.000000000000e+00 1.151703148631e-05 -1.500771920023e-04 0.000000000000e+00 1.090690193334e-05 -4.855089585488e-04 0.000000000000e+00 1.747352978434e-05 -2.953806552452e-04 0.000000000000e+00 2.954800974325e-05 -2.981376110640e-04 0.000000000000e+00 2.670306692209e-05 -3.026898400180e-04 0.000000000000e+00 2.577063989731e-05 -5.349095025567e-04 0.000000000000e+00 2.557616669924e-05 -3.473614221509e-04 0.000000000000e+00 2.028459573198e-05 -1.195682373247e-04 0.000000000000e+00 2.065785150813e-05 -5.881397847464e-04 0.000000000000e+00 1.510287020981e-05 -2.334331525225e-05 0.000000000000e+00 7.697106275637e-06 -2.004166525279e-04 0.000000000000e+00 1.237703971192e-05 -1.837505797868e-04 0.000000000000e+00 3.387157050546e-05 -1.798054723830e-04 0.000000000000e+00 9.942605168563e-06 -4.855074915315e-05 0.000000000000e+00 2.686386356168e-05 -5.619040729409e-04 0.000000000000e+00 1.074142939318e-05 -9.135758240594e-05 0.000000000000e+00 9.732798673822e-06 -8.098828713289e-05 0.000000000000e+00 7.651509262870e-06 -2.118808491489e-04 0.000000000000e+00 6.684500373505e-06 -1.446276210096e-04 0.000000000000e+00 3.388342947685e-05 -5.668935277473e-04 0.000000000000e+00 2.541837633041e-05 -3.568619547649e-04 0.000000000000e+00 1.536102811988e-05 -5.874836895497e-04 0.000000000000e+00 2.329387568449e-05 -4.723559520843e-05 0.000000000000e+00 2.489769332571e-05 -3.957800667051e-04 0.000000000000e+00 1.744189987544e-05 -5.368385093302e-04 0.000000000000e+00 2.571352880548e-05 -3.129076580999e-04 0.000000000000e+00 7.200056274601e-06 -5.794460690350e-04 0.000000000000e+00 2.284012653415e-06 -1.349038379073e-04 0.000000000000e+00 2.284012930565e-06 -2.170192292512e-04 0.000000000000e+00 3.394841139841e-05 -2.503368749478e-04 0.000000000000e+00 2.513532333266e-05 -4.363045818409e-04 0.000000000000e+00 1.706282460480e-05 -1.519758085261e-04 0.000000000000e+00 1.628068924305e-05 -1.424839584609e-04 0.000000000000e+00 1.937297014041e-05 -4.844864945920e-04 0.000000000000e+00 3.376794118633e-05 -2.913149422952e-04 0.000000000000e+00 1.267633036565e-05 -2.003237343266e-04 0.000000000000e+00 1.122999861294e-05 -6.585685861523e-05 0.000000000000e+00 2.578846258684e-05 -5.443137949700e-04 0.000000000000e+00 1.642850900540e-05 -2.102597372837e-04 0.000000000000e+00 1.154440483811e-05 -7.355728957035e-05 0.000000000000e+00 2.494962126994e-05 -2.969011220363e-04 0.000000000000e+00 2.568763691780e-05 -2.273028652439e-04 0.000000000000e+00 2.599494559784e-05 -4.861709834330e-04 0.000000000000e+00 1.131967162866e-05 -2.997750468302e-04 0.000000000000e+00 2.527029962456e-05 -7.262756504467e-05 0.000000000000e+00 1.102652875919e-05 -4.758573540519e-04 0.000000000000e+00 1.111624131172e-05 -3.447708785254e-04 0.000000000000e+00 1.141469707273e-05 -5.324294662678e-04 0.000000000000e+00 2.195735700751e-06 -2.874038662500e-04 0.000000000000e+00 6.708608110452e-06 -7.802230196131e-05 0.000000000000e+00 1.316375439428e-05 -4.368433170686e-04 0.000000000000e+00 1.725346143077e-05 -3.492114953307e-04 0.000000000000e+00 1.275594942480e-05 -2.713137594929e-05 0.000000000000e+00 2.363973507367e-05 -5.832743502497e-04 1.441048814814e-05 1.654827128626e-05 -1.371340821333e-04 1.459644946414e-05 1.454689488234e-05 -4.396269107647e-04 1.299098606121e-05 1.312263532668e-05 -2.693286350092e-04 1.254165690536e-05 1.256295090045e-05 -6.874534874360e-05 1.514110473518e-05 1.511851037683e-05 -1.961253293831e-04 1.850244301378e-05 1.348653792674e-05 -5.310091124578e-04 1.439561724268e-05 1.648810680359e-05 -3.417481263994e-04 2.025104509854e-05 1.161677817555e-05 -3.878006738916e-05 1.316566654055e-05 1.324987857489e-05 -3.911804599728e-04 1.166288921458e-05 1.782317873961e-05 -5.715079446354e-04 1.359158021494e-05 1.824151011093e-05 -4.900355219132e-04 1.032949372740e-05 2.399529326486e-05 -6.895030568483e-05 2.379578230247e-05 1.054401571706e-05 -2.383056911180e-04 2.588830491405e-05 9.185775278388e-06 -6.906800355679e-05 2.280715440827e-05 1.095118201782e-05 -4.142796643610e-04 9.024805142947e-06 2.582366220920e-05 -4.408216557174e-04 9.740066318564e-06 2.486030582285e-05 -3.030468229215e-04 9.694919915005e-06 9.690421312015e-06 -4.734129144604e-04 1.068640570751e-05 1.184483558063e-05 -2.341774099047e-04 2.247393225019e-05 1.026823483260e-05 -1.776477419616e-04 1.025196196583e-05 2.309565878241e-05 -3.970083975151e-04 1.767280989907e-05 9.846093168284e-06 -5.680752324838e-04 2.411971248019e-05 1.032509648615e-05 -3.478035155830e-04 2.579810525883e-05 9.193557751615e-06 -4.809702620441e-04 9.996720325245e-06 2.442315745133e-05 -5.396402066619e-04 9.261932957307e-06 9.785195936138e-06 -1.507033432282e-04 2.304929213982e-05 1.051760790201e-05 -1.314790169461e-04 9.323841517925e-06 2.170666919481e-05 -1.168157321315e-04 1.426874924978e-05 1.091222239046e-05 -3.053271414263e-04 9.887084959321e-06 1.061087733466e-05 -5.453421170378e-04 9.207786739362e-06 9.045538871944e-06 -4.150235299764e-04 1.107938784717e-05 2.250075750940e-05 -2.216152959461e-04 2.100421302177e-05 1.828508209171e-05 -5.820779433326e-04 9.228201391737e-06 2.565332527015e-05 -3.630836899951e-04 1.880989712064e-05 2.058280417485e-05 -2.814833538184e-05 8.886248401412e-06 2.611156471231e-05 -4.806049395345e-04 2.662464463970e-05 8.504430359375e-06 -5.397191932744e-04 8.561584266982e-06 1.439984205826e-05 -2.847575747478e-05 1.090681680109e-05 8.694433735599e-06 -1.795869785124e-04 8.600426248986e-06 8.615418375061e-06 -5.749748023926e-04 7.895120216419e-06 2.740107438890e-05 -1.856779632642e-04 8.326732436436e-06 8.403426706683e-06 -3.288578849913e-04 1.524681280905e-05 2.516809721517e-05 -5.864384412277e-04 6.856220563550e-06 6.853936545831e-06 -1.057056339738e-04 2.321501029402e-05 1.091897014989e-05 -2.832388834601e-04 1.056709098832e-05 2.378832602910e-05 -2.639423082844e-04 9.109751589877e-06 2.384265392244e-05 -3.083885004476e-05 7.208805129590e-06 1.454688470598e-05 -4.396269138021e-04 1.392943139708e-05 6.514164965850e-06 -2.645990060415e-04 1.885223974146e-05 1.734797238864e-05 -9.441411855625e-05 7.600564209021e-06 1.867578015451e-05 -3.520548111976e-04 1.490830084221e-05 7.643583588819e-06 -2.561282370867e-05 1.103966766667e-05 8.045371714991e-06 -2.070116587342e-04 2.747336536546e-05 7.775702673391e-06 -3.029505581577e-04 2.581716665194e-05 1.031454618284e-05 -5.806730776875e-04 7.113383050860e-06 1.654826365463e-05 -1.371340805343e-04 1.608878380492e-05 2.152671645595e-05 -1.648568628471e-04 8.382388065089e-06 1.714364646430e-05 -2.893844898362e-04 1.283271122497e-05 6.181665042408e-06 -6.869070756446e-05 1.832923748005e-05 1.989373439095e-05 -3.755357711918e-04 2.442219425253e-05 1.084646949737e-05 -3.812500074347e-04 1.813126611891e-05 2.000707448441e-05 -3.056260994970e-04 1.327658809723e-05 8.690898937174e-06 -5.006990698032e-04 2.211003528219e-05 1.548362942407e-05 -5.019746071662e-04 2.416690061155e-05 1.075203332729e-05 -4.478916269329e-04 7.650807772734e-06 1.664960795182e-05 -5.295295769642e-04 7.744883744104e-06 1.737779515176e-05 -2.044303144044e-04 1.865328960732e-05 1.913699966061e-05 -2.404807687776e-04 1.443456200157e-05 6.790529397505e-06 -5.856520873407e-04 9.241761805127e-06 8.906959306355e-06 -3.646863125460e-04 8.097611202364e-06 2.690325683138e-05 -5.686651452867e-04 6.196698705215e-06 6.233184522581e-06 -7.218224948254e-05 6.291741186426e-06 2.952162074037e-05 -1.366886915037e-04 2.909504357699e-05 6.734716140565e-06 -2.060070141028e-04 1.621329701503e-05 2.203455484284e-05 -4.573488627279e-04 1.850243387588e-05 6.595079745270e-06 -5.310091127664e-04 1.964313372651e-05 1.858256278220e-05 -6.076615631943e-05 6.931971773516e-06 1.794036346795e-05 -4.815908062645e-04 1.902885038604e-05 1.959683381984e-05 -4.164423172462e-04 8.590373916707e-06 1.617096508354e-05 -9.393647627710e-05 6.679558621402e-06 1.099051341221e-05 -3.944809554988e-04 1.581954618911e-05 2.587172823064e-05 -2.105826817821e-05 6.147317566904e-06 1.253188720610e-05 -6.918777346041e-05 2.775810247781e-05 7.576102788277e-06 -3.463896824944e-05 1.435593559873e-05 2.410783757116e-05 -3.278678129547e-04 5.751353032098e-06 1.816867587527e-05 -5.685970939454e-04 2.333451666114e-05 1.435416217594e-05 -2.102367331489e-04 2.527953805299e-05 1.061999783340e-05 -9.971154277307e-05 1.707149363170e-05 7.742469375428e-06 -2.258120205522e-04 7.826675276617e-06 1.753538020861e-05 -4.146764086307e-04 1.114776871139e-05 2.549267861659e-05 -5.102884715458e-04 1.297350200951e-05 8.332232145903e-06 -1.253061964475e-04 7.786250134788e-06 7.828642870653e-06 -2.936438845396e-04 6.757737692196e-06 1.398640755893e-05 -5.880305039539e-04 2.403161257323e-05 1.449702407453e-05 -3.168771719038e-04 8.903408556260e-06 8.018074359970e-06 -4.553960875951e-05 1.927769615486e-05 1.992679914476e-05 -2.756730785358e-04 2.894372220442e-05 6.733137093986e-06 -2.498062798021e-04 6.488056532661e-06 2.248701354409e-05 -5.880102275462e-04 6.217677001502e-06 2.948802489594e-05 -1.083358655595e-04 1.681507981201e-05 7.401765916509e-06 -4.026757574548e-04 5.301248472415e-06 2.624758579915e-05 -6.882831223805e-05 2.680827492148e-05 6.078767887073e-06 -4.152492023134e-04 6.973397749741e-06 7.360664555198e-06 -2.486630779503e-04 5.528918409461e-06 2.642236541442e-05 -3.985677909866e-04 1.800306069803e-05 2.156879513098e-05 -5.396222422165e-04 1.652660744628e-05 2.310591460377e-05 -2.010938874978e-04 6.593249380228e-06 2.746684813227e-05 -2.262652156387e-04 2.379957965546e-05 1.519361356657e-05 -5.572115409552e-04 1.760597497892e-05 2.214972258248e-05 -1.165714853800e-04 8.204798751634e-06 1.694894257256e-05 -1.648340325313e-04 2.244874300262e-05 1.654376692284e-05 -1.530679642228e-04 1.494598366798e-05 8.568861065940e-06 -9.593647240566e-05 1.820788626193e-05 7.579355285111e-06 -4.810734816343e-04 2.025103684285e-05 5.670764555911e-06 -3.878006836594e-05 2.952485955246e-05 5.436861530286e-06 -4.725416779667e-04 2.890881570161e-05 6.856152189201e-06 -1.271614174573e-04 8.231275221686e-06 7.317197963645e-06 -5.232337825955e-04 6.783588054175e-06 2.398215800376e-05 -3.364040878043e-04 2.243265589160e-05 7.688924837235e-06 -5.072528674264e-04 1.321460482769e-05 2.485406178651e-05 -1.408364170875e-04 2.215850867461e-05 1.831103113163e-05 -4.455933370583e-04 2.305176801766e-05 9.287281454152e-06 -2.086954153905e-05 2.193501993993e-05 1.843445791973e-05 -1.880060215376e-04 6.547907892615e-06 6.364987909518e-06 -1.287584718566e-04 1.398808523012e-05 2.472868896640e-05 -9.343951668206e-05 2.891681007659e-05 6.708336867580e-06 -5.628875714475e-04 2.245622026240e-05 5.286691963688e-06 -2.338874460729e-04 5.447828226753e-06 2.509895744276e-05 -2.898306017485e-04 5.568416195584e-06 1.199250735724e-05 -2.245068113090e-04 2.210721615256e-05 5.222126776753e-06 -1.707504037849e-04 2.522188795861e-05 5.472870033475e-06 -3.372526967628e-04 1.647956162897e-05 8.071087624458e-06 -3.392809247755e-04 2.372147634653e-05 1.657541851307e-05 -4.750961609269e-04 5.461058623306e-06 2.735283576620e-05 -5.456800784786e-04 1.539078053907e-05 6.600931162011e-06 -1.527503038050e-04 1.286829227708e-05 6.377410769589e-06 -5.587383277705e-04 7.130145901745e-06 5.311097598158e-06 -4.021732226072e-04 1.781503578876e-05 1.459179936389e-05 -2.039115556923e-05 7.509220481893e-06 2.036333451131e-05 -2.432731602439e-04 2.191420684333e-05 1.811346616081e-05 -3.517530695893e-04 7.433181623369e-06 1.324585580097e-05 -5.067782124435e-04 6.482374665329e-06 1.287765314860e-05 -1.886028962260e-04 2.071152007304e-05 7.036851353294e-06 -5.898135921228e-04 6.577125709087e-06 5.940782757671e-06 -2.284566491355e-04 2.344671711026e-05 1.729251679309e-05 -1.174588421889e-04 2.737777891677e-05 8.442456288710e-06 -1.527148255391e-04 7.169672665000e-06 6.886966725621e-06 -4.482915685314e-04 2.906293998927e-05 6.535618934922e-06 -1.784532489253e-04 2.499194308151e-05 1.495504185467e-05 -2.586220481022e-04 2.434281313844e-05 4.576228009566e-06 -6.884070669097e-05 4.633673106012e-06 2.663491334891e-05 -4.339146893261e-04 2.025678017644e-05 5.155064506525e-06 -5.714070703591e-04 2.042866206576e-05 6.698844830744e-06 -3.637378328773e-04 4.834473719952e-06 1.152163770998e-05 -1.436955576965e-04 6.017711019948e-06 2.968938153276e-05 -3.508938416377e-04 1.791292559617e-05 5.995954805812e-06 -2.810485194674e-04 1.744903580411e-05 2.371985180547e-05 -4.805799578646e-04 1.433582456470e-05 2.528482689712e-05 -4.227343435541e-04 6.617019122092e-06 2.825613312069e-05 -4.723425650918e-05 1.748354814426e-05 2.358847845467e-05 -5.632280749424e-04 1.639258239337e-05 7.939875793858e-06 -4.545256304802e-04 1.582762154210e-05 2.483122590291e-05 -5.278846209500e-05 2.474302748029e-05 1.606519501253e-05 -7.625000315756e-05 3.016877223045e-05 5.340430275233e-06 -7.081333341517e-05 6.460550305680e-06 1.991967307045e-05 -3.148032544219e-04 1.047142853617e-05 4.924969833942e-06 -4.797420123652e-04 2.866484346459e-05 6.990708599021e-06 -3.630028058247e-04 6.098030221871e-06 2.116264774512e-05 -4.766876468897e-05 1.743250292785e-05 6.503865725172e-06 -2.006052007113e-04 1.630469853170e-05 2.452318522578e-05 -3.577884676580e-04 2.387729319697e-05 1.762631077740e-05 -3.881077244366e-04 2.047436563132e-05 6.577017805974e-06 -4.342210834549e-04 1.658318304066e-05 1.313705290943e-05 -5.889596187278e-04 7.311375228189e-06 2.610337856702e-05 -1.592099936195e-04 1.375260040204e-05 5.838822729676e-06 -3.224183166158e-04 6.094306621032e-06 6.087326975884e-06 -1.970954300751e-05 5.560136106444e-06 5.511958306586e-06 -5.528332207958e-04 2.526705108987e-05 1.566085099255e-05 -5.337500033561e-04 2.492102353139e-05 1.616017595721e-05 -2.932692465011e-05 4.958044047599e-06 1.018281386665e-05 -4.805751986971e-04 5.898850668245e-06 2.405952557382e-05 -5.237365812996e-04 4.790520489471e-06 2.128887550575e-05 -1.247155664040e-04 2.300341449894e-05 1.998969668191e-05 -1.668391449310e-05 5.928447181881e-06 6.212113369307e-06 -5.907859749835e-04 5.887071025740e-06 8.905929253958e-06 -3.475550772050e-04 2.392899544021e-05 1.728175903666e-05 -2.948207582122e-04 1.506650833380e-05 2.546119797409e-05 -2.822219466794e-04 2.149638414772e-05 2.032290509944e-05 -5.193169095834e-04 2.123521515102e-05 2.081243209881e-05 -2.170192299986e-04 1.979288681560e-05 2.215041688950e-05 -1.414584648282e-04 1.136502035918e-05 5.928994023188e-06 -3.481851022292e-04 1.119996950677e-05 4.387346848154e-06 -4.097283478792e-04 2.227430983966e-05 7.267028998631e-06 -2.611367737728e-04 1.173596558561e-05 3.910493031893e-06 -1.366030872647e-05 2.483431234263e-06 3.372210378884e-05 -3.043713091487e-04 3.569719472072e-06 3.570351386594e-06 -5.162125475465e-04 3.097944724688e-05 5.109729890181e-06 -3.921055094282e-04 3.234288140589e-05 3.949964401508e-06 -1.998982411977e-04 3.920345231228e-06 3.232350605821e-05 -4.227676885418e-04 3.293738793172e-05 3.266550889383e-06 -5.042771261896e-04 2.235589072695e-05 2.234850157771e-05 -5.924038474317e-04 5.842877362707e-06 2.056023128970e-05 -4.393046816217e-04 2.833318334327e-05 1.144436995824e-05 -4.633653903290e-04 5.552946809145e-06 3.066770884270e-05 -5.801735454953e-04 6.222973317060e-06 2.224423124479e-05 -9.746385796435e-05 7.298902866596e-06 1.637588241689e-05 -3.764112832615e-04 1.496095683868e-05 2.632839641773e-05 -5.274314920307e-04 2.956775554629e-05 6.370520493741e-06 -2.280375351824e-04 3.731961608766e-06 2.344677240257e-05 -5.970982798474e-04 5.046982823855e-06 3.137513210959e-05 -6.466271674594e-05 5.635509973783e-06 2.025001378810e-05 -6.788915887188e-05 2.275265902222e-05 4.858441041106e-06 -4.805036405749e-04 3.153760436049e-05 4.806056329752e-06 -1.147433448125e-04 5.130468346091e-06 1.188297870358e-05 -5.251564003794e-04 4.298893024923e-06 2.133694294128e-05 -3.459375605561e-04 2.021185499099e-05 2.296962494805e-05 -4.334413678196e-04 4.054835721275e-06 6.914108589746e-06 -1.169104622565e-04 3.166906386708e-05 4.170297460998e-06 -5.526356846203e-04 2.975387461672e-05 6.638198862044e-06 -3.225961540343e-04 4.780551682324e-06 2.424537046064e-05 -5.590936180547e-04 2.637637130641e-05 1.561023457856e-05 -3.401455656262e-04 5.557456739412e-06 1.197056910169e-05 -4.561915007247e-04 4.622257716684e-06 4.417372652207e-06 -4.373529971050e-04 2.291637581371e-05 4.624286630400e-06 -5.267155789458e-05 1.459639719141e-05 6.212539299792e-06 -3.740541415858e-04 4.227134442914e-06 1.577917825549e-05 -1.485206727364e-04 1.255299675669e-05 5.381849335600e-06 -2.871709789052e-04 2.243662316152e-05 2.107158731349e-05 -4.879921929924e-04 1.032364886778e-05 2.860328486333e-05 -4.105048359468e-04 2.258090383363e-05 2.143890920442e-05 -5.672974925368e-04 4.302666303412e-06 2.100935732153e-05 -3.279566238601e-04 2.770262790716e-05 1.308804734660e-05 -3.618479891136e-04 3.097847034163e-05 5.260556572782e-06 -3.477461298084e-04 3.984251997162e-06 2.487388497066e-05 -4.579277035601e-05 1.382259093165e-05 6.309195674355e-06 -4.347822389690e-04 3.549425514001e-06 5.951849247447e-06 -1.107595911245e-05 4.827927410359e-06 7.004186341801e-06 -3.589233532955e-05 5.161001891910e-06 4.886036551187e-06 -4.794576774260e-04 2.580663220481e-05 1.854125188081e-05 -2.156045197015e-04 2.672578598392e-05 6.070446921862e-06 -2.758542136279e-04 3.194654344226e-05 3.967257682291e-06 -2.145412605281e-04 2.999193833880e-05 6.522944579695e-06 -4.524702883621e-04 9.511762100032e-06 2.879215802848e-05 -5.260546194121e-04 4.085058522453e-06 2.824157036644e-05 -5.647142595542e-04 5.929486629680e-06 1.807950659595e-05 -4.609221881045e-04 2.034227355204e-05 2.349229932344e-05 -5.038551215919e-04 3.002913933647e-05 1.053513785324e-05 -3.744247774656e-04 7.739149514434e-06 5.045651123989e-06 -4.953790735607e-04 2.455133656840e-05 3.841528292282e-06 -2.657691033666e-04 4.165264858108e-06 3.189146222821e-05 -5.557088299362e-04 
        </DataArray>
      </PointData>
      <CellData>
      </CellData>
    </Piece>
  </UnstructuredGrid>
</VTKFile>
